c Input CNF, Input: #User=11, #Permessi=11, #ruoli=44
p wcnf 2640 10748 1000423
207 1 0
207 2 0
207 3 0
207 4 0
207 5 0
207 -6 0
207 -7 0
207 -8 0
207 -9 0
207 -10 0
207 -11 0
207 12 0
207 -13 0
207 -14 0
207 -15 0
207 -16 0
207 -17 0
207 -18 0
207 -19 0
207 45 0
207 -46 0
207 47 0
207 48 0
207 49 0
207 50 0
207 51 0
207 -52 0
207 -53 0
207 -54 0
207 -55 0
207 -56 0
207 57 0
207 -58 0
207 -59 0
207 -60 0
207 -61 0
207 -62 0
207 -63 0
207 89 0
207 -90 0
207 91 0
207 92 0
207 93 0
207 -94 0
207 -95 0
207 96 0
207 97 0
207 98 0
207 -99 0
207 -100 0
207 -101 0
207 102 0
207 -103 0
207 -104 0
207 -105 0
207 -106 0
207 -107 0
207 -133 0
207 134 0
207 135 0
207 -136 0
207 137 0
207 138 0
207 -139 0
207 140 0
207 -141 0
207 142 0
207 143 0
207 -144 0
207 -145 0
207 -146 0
207 147 0
207 -148 0
207 -149 0
207 -150 0
207 -151 0
207 -177 0
207 178 0
207 179 0
207 -180 0
207 181 0
207 182 0
207 -183 0
207 184 0
207 -185 0
207 186 0
207 187 0
207 -188 0
207 -189 0
207 -190 0
207 191 0
207 -192 0
207 -193 0
207 -194 0
207 -195 0
207 -221 0
207 -222 0
207 -223 0
207 -224 0
207 -225 0
207 -226 0
207 -227 0
207 -228 0
207 -229 0
207 -230 0
207 -231 0
207 -232 0
207 -233 0
207 -234 0
207 -235 0
207 -236 0
207 -237 0
207 -238 0
207 -239 0
207 -265 0
207 -266 0
207 -267 0
207 -268 0
207 -269 0
207 -270 0
207 -271 0
207 -272 0
207 -273 0
207 -274 0
207 -275 0
207 -276 0
207 -277 0
207 -278 0
207 -279 0
207 -280 0
207 -281 0
207 -282 0
207 -283 0
207 -309 0
207 -310 0
207 311 0
207 -312 0
207 313 0
207 -314 0
207 -315 0
207 316 0
207 -317 0
207 318 0
207 -319 0
207 -320 0
207 -321 0
207 -322 0
207 -323 0
207 324 0
207 -325 0
207 -326 0
207 -327 0
207 -353 0
207 -354 0
207 -355 0
207 356 0
207 357 0
207 -358 0
207 359 0
207 -360 0
207 361 0
207 362 0
207 363 0
207 -364 0
207 -365 0
207 -366 0
207 -367 0
207 -368 0
207 369 0
207 -370 0
207 -371 0
207 -397 0
207 -398 0
207 399 0
207 -400 0
207 401 0
207 -402 0
207 -403 0
207 -404 0
207 -405 0
207 -406 0
207 -407 0
207 -408 0
207 -409 0
207 -410 0
207 -411 0
207 -412 0
207 -413 0
207 414 0
207 -415 0
207 -441 0
207 -442 0
207 -443 0
207 -444 0
207 445 0
207 -446 0
207 -447 0
207 -448 0
207 -449 0
207 450 0
207 -451 0
207 -452 0
207 -453 0
207 -454 0
207 -455 0
207 -456 0
207 -457 0
207 -458 0
207 459 0
207 -485 0
207 -486 0
207 487 0
207 488 0
207 489 0
207 -490 0
207 -491 0
207 -492 0
207 -493 0
207 -494 0
207 -495 0
207 496 0
207 -497 0
207 498 0
207 499 0
207 -500 0
207 -501 0
207 -502 0
207 -503 0
207 -504 0
207 -505 0
207 -506 0
207 -507 0
207 -508 0
207 509 0
207 510 0
207 -511 0
207 -512 0
207 -513 0
207 -514 0
207 -515 0
207 -516 0
207 -517 0
207 -518 0
207 -519 0
207 -520 0
207 521 0
207 522 0
207 -523 0
207 -524 0
207 -525 0
207 -526 0
207 -527 0
207 -528 0
207 -529 0
207 -530 0
207 -531 0
207 532 0
207 -533 0
207 -534 0
207 -535 0
207 -536 0
207 -537 0
207 -538 0
207 -539 0
207 -540 0
207 -541 0
207 542 0
207 543 0
207 -544 0
207 545 0
207 -546 0
207 -547 0
207 -548 0
207 -549 0
207 -550 0
207 -551 0
207 -552 0
207 -553 0
207 554 0
207 555 0
207 556 0
207 -557 0
207 -558 0
207 -559 0
207 -560 0
207 -561 0
207 -562 0
207 563 0
207 564 0
207 565 0
207 -566 0
207 -567 0
207 -568 0
207 -569 0
207 -570 0
207 -571 0
207 -572 0
207 -573 0
207 574 0
207 -575 0
207 576 0
207 577 0
207 -578 0
207 -579 0
207 -580 0
207 -581 0
207 -582 0
207 -583 0
207 -584 0
207 585 0
207 -586 0
207 587 0
207 -588 0
207 -589 0
207 -590 0
207 -591 0
207 -592 0
207 -593 0
207 -594 0
207 -595 0
207 596 0
207 -597 0
207 598 0
207 -599 0
207 600 0
207 -601 0
207 -602 0
207 -603 0
207 -604 0
207 -605 0
207 606 0
207 -607 0
207 608 0
207 609 0
207 610 0
207 -611 0
207 -612 0
207 -613 0
207 -614 0
207 -615 0
207 -616 0
207 -617 0
207 -618 0
207 619 0
207 620 0
207 621 0
207 622 0
207 -623 0
207 -624 0
207 -625 0
207 -626 0
207 -627 0
207 -628 0
207 629 0
207 630 0
207 631 0
207 632 0
207 -633 0
207 -634 0
207 -635 0
207 -636 0
207 -637 0
207 -638 0
207 639 0
207 640 0
207 641 0
207 642 0
207 -643 0
207 644 0
207 -645 0
207 -646 0
207 -647 0
207 -648 0
207 -649 0
207 -650 0
207 651 0
207 652 0
207 653 0
207 -654 0
207 -655 0
207 656 0
207 657 0
207 -658 0
207 -659 0
207 -660 0
207 -661 0
207 662 0
207 -663 0
207 664 0
207 665 0
207 666 0
207 -667 0
207 -668 0
207 669 0
207 -670 0
207 -671 0
207 -672 0
207 -673 0
207 674 0
207 675 0
207 -676 0
207 -677 0
207 -678 0
207 -679 0
207 -680 0
207 681 0
207 -682 0
207 -683 0
207 684 0
207 -685 0
207 686 0
207 -687 0
207 -688 0
207 -689 0
207 -690 0
207 -691 0
207 -692 0
207 693 0
207 -20 0
207 -21 0
207 -22 0
207 -23 0
207 -24 0
207 -25 0
207 -26 0
207 -27 0
207 -28 0
207 -29 0
207 -30 0
207 -31 0
207 -32 0
207 -33 0
207 -34 0
207 -35 0
207 -36 0
207 -37 0
207 -38 0
207 -39 0
207 -40 0
207 -41 0
207 -42 0
207 -43 0
207 -44 0
207 -64 0
207 -65 0
207 -66 0
207 -67 0
207 -68 0
207 -69 0
207 -70 0
207 -71 0
207 -72 0
207 -73 0
207 -74 0
207 -75 0
207 -76 0
207 -77 0
207 -78 0
207 -79 0
207 -80 0
207 -81 0
207 -82 0
207 -83 0
207 -84 0
207 -85 0
207 -86 0
207 -87 0
207 -88 0
207 -108 0
207 -109 0
207 -110 0
207 -111 0
207 -112 0
207 -113 0
207 -114 0
207 -115 0
207 -116 0
207 -117 0
207 -118 0
207 -119 0
207 -120 0
207 -121 0
207 -122 0
207 -123 0
207 -124 0
207 -125 0
207 -126 0
207 -127 0
207 -128 0
207 -129 0
207 -130 0
207 -131 0
207 -132 0
207 -152 0
207 -153 0
207 -154 0
207 -155 0
207 -156 0
207 -157 0
207 -158 0
207 -159 0
207 -160 0
207 -161 0
207 -162 0
207 -163 0
207 -164 0
207 -165 0
207 -166 0
207 -167 0
207 -168 0
207 -169 0
207 -170 0
207 -171 0
207 -172 0
207 -173 0
207 -174 0
207 -175 0
207 -176 0
207 -196 0
207 -197 0
207 -198 0
207 -199 0
207 -200 0
207 -201 0
207 -202 0
207 -203 0
207 -204 0
207 -205 0
207 -206 0
207 -207 0
207 -208 0
207 -209 0
207 -210 0
207 -211 0
207 -212 0
207 -213 0
207 -214 0
207 -215 0
207 -216 0
207 -217 0
207 -218 0
207 -219 0
207 -220 0
207 -240 0
207 -241 0
207 -242 0
207 -243 0
207 -244 0
207 -245 0
207 -246 0
207 -247 0
207 -248 0
207 -249 0
207 -250 0
207 -251 0
207 -252 0
207 -253 0
207 -254 0
207 -255 0
207 -256 0
207 -257 0
207 -258 0
207 -259 0
207 -260 0
207 -261 0
207 -262 0
207 -263 0
207 -264 0
207 -284 0
207 -285 0
207 -286 0
207 -287 0
207 -288 0
207 -289 0
207 -290 0
207 -291 0
207 -292 0
207 -293 0
207 -294 0
207 -295 0
207 -296 0
207 -297 0
207 -298 0
207 -299 0
207 -300 0
207 -301 0
207 -302 0
207 -303 0
207 -304 0
207 -305 0
207 -306 0
207 -307 0
207 -308 0
207 -328 0
207 -329 0
207 -330 0
207 -331 0
207 -332 0
207 -333 0
207 -334 0
207 -335 0
207 -336 0
207 -337 0
207 -338 0
207 -339 0
207 -340 0
207 -341 0
207 -342 0
207 -343 0
207 -344 0
207 -345 0
207 -346 0
207 -347 0
207 -348 0
207 -349 0
207 -350 0
207 -351 0
207 -352 0
207 -372 0
207 -373 0
207 -374 0
207 -375 0
207 -376 0
207 -377 0
207 -378 0
207 -379 0
207 -380 0
207 -381 0
207 -382 0
207 -383 0
207 -384 0
207 -385 0
207 -386 0
207 -387 0
207 -388 0
207 -389 0
207 -390 0
207 -391 0
207 -392 0
207 -393 0
207 -394 0
207 -395 0
207 -396 0
207 -416 0
207 -417 0
207 -418 0
207 -419 0
207 -420 0
207 -421 0
207 -422 0
207 -423 0
207 -424 0
207 -425 0
207 -426 0
207 -427 0
207 -428 0
207 -429 0
207 -430 0
207 -431 0
207 -432 0
207 -433 0
207 -434 0
207 -435 0
207 -436 0
207 -437 0
207 -438 0
207 -439 0
207 -440 0
207 -460 0
207 -461 0
207 -462 0
207 -463 0
207 -464 0
207 -465 0
207 -466 0
207 -467 0
207 -468 0
207 -469 0
207 -470 0
207 -471 0
207 -472 0
207 -473 0
207 -474 0
207 -475 0
207 -476 0
207 -477 0
207 -478 0
207 -479 0
207 -480 0
207 -481 0
207 -482 0
207 -483 0
207 -484 0
207 -694 0
207 -705 0
207 -716 0
207 -727 0
207 -738 0
207 -749 0
207 -760 0
207 -771 0
207 -782 0
207 -793 0
207 -804 0
207 -815 0
207 -826 0
207 -837 0
207 -848 0
207 -859 0
207 -870 0
207 -881 0
207 -892 0
207 -903 0
207 -914 0
207 -925 0
207 -936 0
207 -947 0
207 -958 0
207 -695 0
207 -706 0
207 -717 0
207 -728 0
207 -739 0
207 -750 0
207 -761 0
207 -772 0
207 -783 0
207 -794 0
207 -805 0
207 -816 0
207 -827 0
207 -838 0
207 -849 0
207 -860 0
207 -871 0
207 -882 0
207 -893 0
207 -904 0
207 -915 0
207 -926 0
207 -937 0
207 -948 0
207 -959 0
207 -696 0
207 -707 0
207 -718 0
207 -729 0
207 -740 0
207 -751 0
207 -762 0
207 -773 0
207 -784 0
207 -795 0
207 -806 0
207 -817 0
207 -828 0
207 -839 0
207 -850 0
207 -861 0
207 -872 0
207 -883 0
207 -894 0
207 -905 0
207 -916 0
207 -927 0
207 -938 0
207 -949 0
207 -960 0
207 -697 0
207 -708 0
207 -719 0
207 -730 0
207 -741 0
207 -752 0
207 -763 0
207 -774 0
207 -785 0
207 -796 0
207 -807 0
207 -818 0
207 -829 0
207 -840 0
207 -851 0
207 -862 0
207 -873 0
207 -884 0
207 -895 0
207 -906 0
207 -917 0
207 -928 0
207 -939 0
207 -950 0
207 -961 0
207 -698 0
207 -709 0
207 -720 0
207 -731 0
207 -742 0
207 -753 0
207 -764 0
207 -775 0
207 -786 0
207 -797 0
207 -808 0
207 -819 0
207 -830 0
207 -841 0
207 -852 0
207 -863 0
207 -874 0
207 -885 0
207 -896 0
207 -907 0
207 -918 0
207 -929 0
207 -940 0
207 -951 0
207 -962 0
207 -699 0
207 -710 0
207 -721 0
207 -732 0
207 -743 0
207 -754 0
207 -765 0
207 -776 0
207 -787 0
207 -798 0
207 -809 0
207 -820 0
207 -831 0
207 -842 0
207 -853 0
207 -864 0
207 -875 0
207 -886 0
207 -897 0
207 -908 0
207 -919 0
207 -930 0
207 -941 0
207 -952 0
207 -963 0
207 -700 0
207 -711 0
207 -722 0
207 -733 0
207 -744 0
207 -755 0
207 -766 0
207 -777 0
207 -788 0
207 -799 0
207 -810 0
207 -821 0
207 -832 0
207 -843 0
207 -854 0
207 -865 0
207 -876 0
207 -887 0
207 -898 0
207 -909 0
207 -920 0
207 -931 0
207 -942 0
207 -953 0
207 -964 0
207 -701 0
207 -712 0
207 -723 0
207 -734 0
207 -745 0
207 -756 0
207 -767 0
207 -778 0
207 -789 0
207 -800 0
207 -811 0
207 -822 0
207 -833 0
207 -844 0
207 -855 0
207 -866 0
207 -877 0
207 -888 0
207 -899 0
207 -910 0
207 -921 0
207 -932 0
207 -943 0
207 -954 0
207 -965 0
207 -702 0
207 -713 0
207 -724 0
207 -735 0
207 -746 0
207 -757 0
207 -768 0
207 -779 0
207 -790 0
207 -801 0
207 -812 0
207 -823 0
207 -834 0
207 -845 0
207 -856 0
207 -867 0
207 -878 0
207 -889 0
207 -900 0
207 -911 0
207 -922 0
207 -933 0
207 -944 0
207 -955 0
207 -966 0
207 -703 0
207 -714 0
207 -725 0
207 -736 0
207 -747 0
207 -758 0
207 -769 0
207 -780 0
207 -791 0
207 -802 0
207 -813 0
207 -824 0
207 -835 0
207 -846 0
207 -857 0
207 -868 0
207 -879 0
207 -890 0
207 -901 0
207 -912 0
207 -923 0
207 -934 0
207 -945 0
207 -956 0
207 -967 0
207 -704 0
207 -715 0
207 -726 0
207 -737 0
207 -748 0
207 -759 0
207 -770 0
207 -781 0
207 -792 0
207 -803 0
207 -814 0
207 -825 0
207 -836 0
207 -847 0
207 -858 0
207 -869 0
207 -880 0
207 -891 0
207 -902 0
207 -913 0
207 -924 0
207 -935 0
207 -946 0
207 -957 0
207 -968 0
690 -1 0
690 -2 0
690 -3 0
690 -4 0
690 -5 0
690 -12 0
690 -45 0
690 -47 0
690 -48 0
690 -49 0
690 -50 0
690 -51 0
690 -57 0
690 -89 0
690 -91 0
690 -92 0
690 -93 0
690 -96 0
690 -97 0
690 -98 0
690 -102 0
690 -134 0
690 -135 0
690 -137 0
690 -138 0
690 -140 0
690 -142 0
690 -143 0
690 -147 0
690 -178 0
690 -179 0
690 -181 0
690 -182 0
690 -184 0
690 -186 0
690 -187 0
690 -191 0
690 -311 0
690 -313 0
690 -316 0
690 -318 0
690 -324 0
690 -356 0
690 -357 0
690 -359 0
690 -361 0
690 -362 0
690 -363 0
690 -369 0
690 -399 0
690 -401 0
690 -414 0
690 -445 0
690 -450 0
690 -459 0
690 -487 0
690 -488 0
690 -489 0
690 -496 0
690 -498 0
690 -499 0
690 -509 0
690 -510 0
690 -521 0
690 -522 0
690 -532 0
690 -542 0
690 -543 0
690 -545 0
690 -554 0
690 -555 0
690 -556 0
690 -563 0
690 -564 0
690 -565 0
690 -574 0
690 -576 0
690 -577 0
690 -585 0
690 -587 0
690 -596 0
690 -598 0
690 -600 0
690 -606 0
690 -608 0
690 -609 0
690 -610 0
690 -619 0
690 -620 0
690 -621 0
690 -622 0
690 -629 0
690 -630 0
690 -631 0
690 -632 0
690 -639 0
690 -640 0
690 -641 0
690 -642 0
690 -644 0
690 -651 0
690 -652 0
690 -653 0
690 -656 0
690 -657 0
690 -662 0
690 -664 0
690 -665 0
690 -666 0
690 -669 0
690 -674 0
690 -675 0
690 -681 0
690 -684 0
690 -686 0
690 -693 0
29474 969 0
29474 970 0
29474 971 0
29474 972 0
29474 973 0
29474 974 0
29474 975 0
29474 976 0
29474 977 0
29474 978 0
29474 979 0
29474 980 0
29474 981 0
29474 982 0
29474 983 0
29474 984 0
29474 985 0
29474 986 0
29474 987 0
6400 988 0
6400 989 0
6400 990 0
6400 991 0
6400 992 0
6400 993 0
6400 994 0
6400 995 0
6400 996 0
6400 997 0
6400 998 0
6400 999 0
6400 1000 0
6400 1001 0
6400 1002 0
6400 1003 0
6400 1004 0
6400 1005 0
6400 1006 0
6400 1007 0
6400 1008 0
6400 1009 0
6400 1010 0
6400 1011 0
6400 1012 0
1000423 -969 -1 0
1000423 -969 -45 0
1000423 -969 -89 0
1000423 -969 -133 0
1000423 -969 -177 0
1000423 -969 -221 0
1000423 -969 -265 0
1000423 -969 -309 0
1000423 -969 -353 0
1000423 -969 -397 0
1000423 -969 -441 0
1000423 969 1 45 89 133 177 221 265 309 353 397 441 0
1000423 -970 -2 0
1000423 -970 -46 0
1000423 -970 -90 0
1000423 -970 -134 0
1000423 -970 -178 0
1000423 -970 -222 0
1000423 -970 -266 0
1000423 -970 -310 0
1000423 -970 -354 0
1000423 -970 -398 0
1000423 -970 -442 0
1000423 970 2 46 90 134 178 222 266 310 354 398 442 0
1000423 -971 -3 0
1000423 -971 -47 0
1000423 -971 -91 0
1000423 -971 -135 0
1000423 -971 -179 0
1000423 -971 -223 0
1000423 -971 -267 0
1000423 -971 -311 0
1000423 -971 -355 0
1000423 -971 -399 0
1000423 -971 -443 0
1000423 971 3 47 91 135 179 223 267 311 355 399 443 0
1000423 -972 -4 0
1000423 -972 -48 0
1000423 -972 -92 0
1000423 -972 -136 0
1000423 -972 -180 0
1000423 -972 -224 0
1000423 -972 -268 0
1000423 -972 -312 0
1000423 -972 -356 0
1000423 -972 -400 0
1000423 -972 -444 0
1000423 972 4 48 92 136 180 224 268 312 356 400 444 0
1000423 -973 -5 0
1000423 -973 -49 0
1000423 -973 -93 0
1000423 -973 -137 0
1000423 -973 -181 0
1000423 -973 -225 0
1000423 -973 -269 0
1000423 -973 -313 0
1000423 -973 -357 0
1000423 -973 -401 0
1000423 -973 -445 0
1000423 973 5 49 93 137 181 225 269 313 357 401 445 0
1000423 -974 -6 0
1000423 -974 -50 0
1000423 -974 -94 0
1000423 -974 -138 0
1000423 -974 -182 0
1000423 -974 -226 0
1000423 -974 -270 0
1000423 -974 -314 0
1000423 -974 -358 0
1000423 -974 -402 0
1000423 -974 -446 0
1000423 974 6 50 94 138 182 226 270 314 358 402 446 0
1000423 -975 -7 0
1000423 -975 -51 0
1000423 -975 -95 0
1000423 -975 -139 0
1000423 -975 -183 0
1000423 -975 -227 0
1000423 -975 -271 0
1000423 -975 -315 0
1000423 -975 -359 0
1000423 -975 -403 0
1000423 -975 -447 0
1000423 975 7 51 95 139 183 227 271 315 359 403 447 0
1000423 -976 -8 0
1000423 -976 -52 0
1000423 -976 -96 0
1000423 -976 -140 0
1000423 -976 -184 0
1000423 -976 -228 0
1000423 -976 -272 0
1000423 -976 -316 0
1000423 -976 -360 0
1000423 -976 -404 0
1000423 -976 -448 0
1000423 976 8 52 96 140 184 228 272 316 360 404 448 0
1000423 -977 -9 0
1000423 -977 -53 0
1000423 -977 -97 0
1000423 -977 -141 0
1000423 -977 -185 0
1000423 -977 -229 0
1000423 -977 -273 0
1000423 -977 -317 0
1000423 -977 -361 0
1000423 -977 -405 0
1000423 -977 -449 0
1000423 977 9 53 97 141 185 229 273 317 361 405 449 0
1000423 -978 -10 0
1000423 -978 -54 0
1000423 -978 -98 0
1000423 -978 -142 0
1000423 -978 -186 0
1000423 -978 -230 0
1000423 -978 -274 0
1000423 -978 -318 0
1000423 -978 -362 0
1000423 -978 -406 0
1000423 -978 -450 0
1000423 978 10 54 98 142 186 230 274 318 362 406 450 0
1000423 -979 -11 0
1000423 -979 -55 0
1000423 -979 -99 0
1000423 -979 -143 0
1000423 -979 -187 0
1000423 -979 -231 0
1000423 -979 -275 0
1000423 -979 -319 0
1000423 -979 -363 0
1000423 -979 -407 0
1000423 -979 -451 0
1000423 979 11 55 99 143 187 231 275 319 363 407 451 0
1000423 -980 -12 0
1000423 -980 -56 0
1000423 -980 -100 0
1000423 -980 -144 0
1000423 -980 -188 0
1000423 -980 -232 0
1000423 -980 -276 0
1000423 -980 -320 0
1000423 -980 -364 0
1000423 -980 -408 0
1000423 -980 -452 0
1000423 980 12 56 100 144 188 232 276 320 364 408 452 0
1000423 -981 -13 0
1000423 -981 -57 0
1000423 -981 -101 0
1000423 -981 -145 0
1000423 -981 -189 0
1000423 -981 -233 0
1000423 -981 -277 0
1000423 -981 -321 0
1000423 -981 -365 0
1000423 -981 -409 0
1000423 -981 -453 0
1000423 981 13 57 101 145 189 233 277 321 365 409 453 0
1000423 -982 -14 0
1000423 -982 -58 0
1000423 -982 -102 0
1000423 -982 -146 0
1000423 -982 -190 0
1000423 -982 -234 0
1000423 -982 -278 0
1000423 -982 -322 0
1000423 -982 -366 0
1000423 -982 -410 0
1000423 -982 -454 0
1000423 982 14 58 102 146 190 234 278 322 366 410 454 0
1000423 -983 -15 0
1000423 -983 -59 0
1000423 -983 -103 0
1000423 -983 -147 0
1000423 -983 -191 0
1000423 -983 -235 0
1000423 -983 -279 0
1000423 -983 -323 0
1000423 -983 -367 0
1000423 -983 -411 0
1000423 -983 -455 0
1000423 983 15 59 103 147 191 235 279 323 367 411 455 0
1000423 -984 -16 0
1000423 -984 -60 0
1000423 -984 -104 0
1000423 -984 -148 0
1000423 -984 -192 0
1000423 -984 -236 0
1000423 -984 -280 0
1000423 -984 -324 0
1000423 -984 -368 0
1000423 -984 -412 0
1000423 -984 -456 0
1000423 984 16 60 104 148 192 236 280 324 368 412 456 0
1000423 -985 -17 0
1000423 -985 -61 0
1000423 -985 -105 0
1000423 -985 -149 0
1000423 -985 -193 0
1000423 -985 -237 0
1000423 -985 -281 0
1000423 -985 -325 0
1000423 -985 -369 0
1000423 -985 -413 0
1000423 -985 -457 0
1000423 985 17 61 105 149 193 237 281 325 369 413 457 0
1000423 -986 -18 0
1000423 -986 -62 0
1000423 -986 -106 0
1000423 -986 -150 0
1000423 -986 -194 0
1000423 -986 -238 0
1000423 -986 -282 0
1000423 -986 -326 0
1000423 -986 -370 0
1000423 -986 -414 0
1000423 -986 -458 0
1000423 986 18 62 106 150 194 238 282 326 370 414 458 0
1000423 -987 -19 0
1000423 -987 -63 0
1000423 -987 -107 0
1000423 -987 -151 0
1000423 -987 -195 0
1000423 -987 -239 0
1000423 -987 -283 0
1000423 -987 -327 0
1000423 -987 -371 0
1000423 -987 -415 0
1000423 -987 -459 0
1000423 987 19 63 107 151 195 239 283 327 371 415 459 0
1000423 -988 -20 0
1000423 -988 -64 0
1000423 -988 -108 0
1000423 -988 -152 0
1000423 -988 -196 0
1000423 -988 -240 0
1000423 -988 -284 0
1000423 -988 -328 0
1000423 -988 -372 0
1000423 -988 -416 0
1000423 -988 -460 0
1000423 988 20 64 108 152 196 240 284 328 372 416 460 0
1000423 -989 -21 0
1000423 -989 -65 0
1000423 -989 -109 0
1000423 -989 -153 0
1000423 -989 -197 0
1000423 -989 -241 0
1000423 -989 -285 0
1000423 -989 -329 0
1000423 -989 -373 0
1000423 -989 -417 0
1000423 -989 -461 0
1000423 989 21 65 109 153 197 241 285 329 373 417 461 0
1000423 -990 -22 0
1000423 -990 -66 0
1000423 -990 -110 0
1000423 -990 -154 0
1000423 -990 -198 0
1000423 -990 -242 0
1000423 -990 -286 0
1000423 -990 -330 0
1000423 -990 -374 0
1000423 -990 -418 0
1000423 -990 -462 0
1000423 990 22 66 110 154 198 242 286 330 374 418 462 0
1000423 -991 -23 0
1000423 -991 -67 0
1000423 -991 -111 0
1000423 -991 -155 0
1000423 -991 -199 0
1000423 -991 -243 0
1000423 -991 -287 0
1000423 -991 -331 0
1000423 -991 -375 0
1000423 -991 -419 0
1000423 -991 -463 0
1000423 991 23 67 111 155 199 243 287 331 375 419 463 0
1000423 -992 -24 0
1000423 -992 -68 0
1000423 -992 -112 0
1000423 -992 -156 0
1000423 -992 -200 0
1000423 -992 -244 0
1000423 -992 -288 0
1000423 -992 -332 0
1000423 -992 -376 0
1000423 -992 -420 0
1000423 -992 -464 0
1000423 992 24 68 112 156 200 244 288 332 376 420 464 0
1000423 -993 -25 0
1000423 -993 -69 0
1000423 -993 -113 0
1000423 -993 -157 0
1000423 -993 -201 0
1000423 -993 -245 0
1000423 -993 -289 0
1000423 -993 -333 0
1000423 -993 -377 0
1000423 -993 -421 0
1000423 -993 -465 0
1000423 993 25 69 113 157 201 245 289 333 377 421 465 0
1000423 -994 -26 0
1000423 -994 -70 0
1000423 -994 -114 0
1000423 -994 -158 0
1000423 -994 -202 0
1000423 -994 -246 0
1000423 -994 -290 0
1000423 -994 -334 0
1000423 -994 -378 0
1000423 -994 -422 0
1000423 -994 -466 0
1000423 994 26 70 114 158 202 246 290 334 378 422 466 0
1000423 -995 -27 0
1000423 -995 -71 0
1000423 -995 -115 0
1000423 -995 -159 0
1000423 -995 -203 0
1000423 -995 -247 0
1000423 -995 -291 0
1000423 -995 -335 0
1000423 -995 -379 0
1000423 -995 -423 0
1000423 -995 -467 0
1000423 995 27 71 115 159 203 247 291 335 379 423 467 0
1000423 -996 -28 0
1000423 -996 -72 0
1000423 -996 -116 0
1000423 -996 -160 0
1000423 -996 -204 0
1000423 -996 -248 0
1000423 -996 -292 0
1000423 -996 -336 0
1000423 -996 -380 0
1000423 -996 -424 0
1000423 -996 -468 0
1000423 996 28 72 116 160 204 248 292 336 380 424 468 0
1000423 -997 -29 0
1000423 -997 -73 0
1000423 -997 -117 0
1000423 -997 -161 0
1000423 -997 -205 0
1000423 -997 -249 0
1000423 -997 -293 0
1000423 -997 -337 0
1000423 -997 -381 0
1000423 -997 -425 0
1000423 -997 -469 0
1000423 997 29 73 117 161 205 249 293 337 381 425 469 0
1000423 -998 -30 0
1000423 -998 -74 0
1000423 -998 -118 0
1000423 -998 -162 0
1000423 -998 -206 0
1000423 -998 -250 0
1000423 -998 -294 0
1000423 -998 -338 0
1000423 -998 -382 0
1000423 -998 -426 0
1000423 -998 -470 0
1000423 998 30 74 118 162 206 250 294 338 382 426 470 0
1000423 -999 -31 0
1000423 -999 -75 0
1000423 -999 -119 0
1000423 -999 -163 0
1000423 -999 -207 0
1000423 -999 -251 0
1000423 -999 -295 0
1000423 -999 -339 0
1000423 -999 -383 0
1000423 -999 -427 0
1000423 -999 -471 0
1000423 999 31 75 119 163 207 251 295 339 383 427 471 0
1000423 -1000 -32 0
1000423 -1000 -76 0
1000423 -1000 -120 0
1000423 -1000 -164 0
1000423 -1000 -208 0
1000423 -1000 -252 0
1000423 -1000 -296 0
1000423 -1000 -340 0
1000423 -1000 -384 0
1000423 -1000 -428 0
1000423 -1000 -472 0
1000423 1000 32 76 120 164 208 252 296 340 384 428 472 0
1000423 -1001 -33 0
1000423 -1001 -77 0
1000423 -1001 -121 0
1000423 -1001 -165 0
1000423 -1001 -209 0
1000423 -1001 -253 0
1000423 -1001 -297 0
1000423 -1001 -341 0
1000423 -1001 -385 0
1000423 -1001 -429 0
1000423 -1001 -473 0
1000423 1001 33 77 121 165 209 253 297 341 385 429 473 0
1000423 -1002 -34 0
1000423 -1002 -78 0
1000423 -1002 -122 0
1000423 -1002 -166 0
1000423 -1002 -210 0
1000423 -1002 -254 0
1000423 -1002 -298 0
1000423 -1002 -342 0
1000423 -1002 -386 0
1000423 -1002 -430 0
1000423 -1002 -474 0
1000423 1002 34 78 122 166 210 254 298 342 386 430 474 0
1000423 -1003 -35 0
1000423 -1003 -79 0
1000423 -1003 -123 0
1000423 -1003 -167 0
1000423 -1003 -211 0
1000423 -1003 -255 0
1000423 -1003 -299 0
1000423 -1003 -343 0
1000423 -1003 -387 0
1000423 -1003 -431 0
1000423 -1003 -475 0
1000423 1003 35 79 123 167 211 255 299 343 387 431 475 0
1000423 -1004 -36 0
1000423 -1004 -80 0
1000423 -1004 -124 0
1000423 -1004 -168 0
1000423 -1004 -212 0
1000423 -1004 -256 0
1000423 -1004 -300 0
1000423 -1004 -344 0
1000423 -1004 -388 0
1000423 -1004 -432 0
1000423 -1004 -476 0
1000423 1004 36 80 124 168 212 256 300 344 388 432 476 0
1000423 -1005 -37 0
1000423 -1005 -81 0
1000423 -1005 -125 0
1000423 -1005 -169 0
1000423 -1005 -213 0
1000423 -1005 -257 0
1000423 -1005 -301 0
1000423 -1005 -345 0
1000423 -1005 -389 0
1000423 -1005 -433 0
1000423 -1005 -477 0
1000423 1005 37 81 125 169 213 257 301 345 389 433 477 0
1000423 -1006 -38 0
1000423 -1006 -82 0
1000423 -1006 -126 0
1000423 -1006 -170 0
1000423 -1006 -214 0
1000423 -1006 -258 0
1000423 -1006 -302 0
1000423 -1006 -346 0
1000423 -1006 -390 0
1000423 -1006 -434 0
1000423 -1006 -478 0
1000423 1006 38 82 126 170 214 258 302 346 390 434 478 0
1000423 -1007 -39 0
1000423 -1007 -83 0
1000423 -1007 -127 0
1000423 -1007 -171 0
1000423 -1007 -215 0
1000423 -1007 -259 0
1000423 -1007 -303 0
1000423 -1007 -347 0
1000423 -1007 -391 0
1000423 -1007 -435 0
1000423 -1007 -479 0
1000423 1007 39 83 127 171 215 259 303 347 391 435 479 0
1000423 -1008 -40 0
1000423 -1008 -84 0
1000423 -1008 -128 0
1000423 -1008 -172 0
1000423 -1008 -216 0
1000423 -1008 -260 0
1000423 -1008 -304 0
1000423 -1008 -348 0
1000423 -1008 -392 0
1000423 -1008 -436 0
1000423 -1008 -480 0
1000423 1008 40 84 128 172 216 260 304 348 392 436 480 0
1000423 -1009 -41 0
1000423 -1009 -85 0
1000423 -1009 -129 0
1000423 -1009 -173 0
1000423 -1009 -217 0
1000423 -1009 -261 0
1000423 -1009 -305 0
1000423 -1009 -349 0
1000423 -1009 -393 0
1000423 -1009 -437 0
1000423 -1009 -481 0
1000423 1009 41 85 129 173 217 261 305 349 393 437 481 0
1000423 -1010 -42 0
1000423 -1010 -86 0
1000423 -1010 -130 0
1000423 -1010 -174 0
1000423 -1010 -218 0
1000423 -1010 -262 0
1000423 -1010 -306 0
1000423 -1010 -350 0
1000423 -1010 -394 0
1000423 -1010 -438 0
1000423 -1010 -482 0
1000423 1010 42 86 130 174 218 262 306 350 394 438 482 0
1000423 -1011 -43 0
1000423 -1011 -87 0
1000423 -1011 -131 0
1000423 -1011 -175 0
1000423 -1011 -219 0
1000423 -1011 -263 0
1000423 -1011 -307 0
1000423 -1011 -351 0
1000423 -1011 -395 0
1000423 -1011 -439 0
1000423 -1011 -483 0
1000423 1011 43 87 131 175 219 263 307 351 395 439 483 0
1000423 -1012 -44 0
1000423 -1012 -88 0
1000423 -1012 -132 0
1000423 -1012 -176 0
1000423 -1012 -220 0
1000423 -1012 -264 0
1000423 -1012 -308 0
1000423 -1012 -352 0
1000423 -1012 -396 0
1000423 -1012 -440 0
1000423 -1012 -484 0
1000423 1012 44 88 132 176 220 264 308 352 396 440 484 0
1000423 988 -969 0
1000423 988 -970 0
1000423 988 -971 0
1000423 988 -972 0
1000423 988 -973 0
1000423 988 -974 0
1000423 988 -975 0
1000423 988 -976 0
1000423 988 -977 0
1000423 988 -978 0
1000423 988 -979 0
1000423 988 -980 0
1000423 988 -981 0
1000423 988 -982 0
1000423 988 -983 0
1000423 988 -984 0
1000423 988 -985 0
1000423 988 -986 0
1000423 988 -987 0
1000423 989 -969 0
1000423 989 -970 0
1000423 989 -971 0
1000423 989 -972 0
1000423 989 -973 0
1000423 989 -974 0
1000423 989 -975 0
1000423 989 -976 0
1000423 989 -977 0
1000423 989 -978 0
1000423 989 -979 0
1000423 989 -980 0
1000423 989 -981 0
1000423 989 -982 0
1000423 989 -983 0
1000423 989 -984 0
1000423 989 -985 0
1000423 989 -986 0
1000423 989 -987 0
1000423 990 -969 0
1000423 990 -970 0
1000423 990 -971 0
1000423 990 -972 0
1000423 990 -973 0
1000423 990 -974 0
1000423 990 -975 0
1000423 990 -976 0
1000423 990 -977 0
1000423 990 -978 0
1000423 990 -979 0
1000423 990 -980 0
1000423 990 -981 0
1000423 990 -982 0
1000423 990 -983 0
1000423 990 -984 0
1000423 990 -985 0
1000423 990 -986 0
1000423 990 -987 0
1000423 991 -969 0
1000423 991 -970 0
1000423 991 -971 0
1000423 991 -972 0
1000423 991 -973 0
1000423 991 -974 0
1000423 991 -975 0
1000423 991 -976 0
1000423 991 -977 0
1000423 991 -978 0
1000423 991 -979 0
1000423 991 -980 0
1000423 991 -981 0
1000423 991 -982 0
1000423 991 -983 0
1000423 991 -984 0
1000423 991 -985 0
1000423 991 -986 0
1000423 991 -987 0
1000423 992 -969 0
1000423 992 -970 0
1000423 992 -971 0
1000423 992 -972 0
1000423 992 -973 0
1000423 992 -974 0
1000423 992 -975 0
1000423 992 -976 0
1000423 992 -977 0
1000423 992 -978 0
1000423 992 -979 0
1000423 992 -980 0
1000423 992 -981 0
1000423 992 -982 0
1000423 992 -983 0
1000423 992 -984 0
1000423 992 -985 0
1000423 992 -986 0
1000423 992 -987 0
1000423 993 -969 0
1000423 993 -970 0
1000423 993 -971 0
1000423 993 -972 0
1000423 993 -973 0
1000423 993 -974 0
1000423 993 -975 0
1000423 993 -976 0
1000423 993 -977 0
1000423 993 -978 0
1000423 993 -979 0
1000423 993 -980 0
1000423 993 -981 0
1000423 993 -982 0
1000423 993 -983 0
1000423 993 -984 0
1000423 993 -985 0
1000423 993 -986 0
1000423 993 -987 0
1000423 994 -969 0
1000423 994 -970 0
1000423 994 -971 0
1000423 994 -972 0
1000423 994 -973 0
1000423 994 -974 0
1000423 994 -975 0
1000423 994 -976 0
1000423 994 -977 0
1000423 994 -978 0
1000423 994 -979 0
1000423 994 -980 0
1000423 994 -981 0
1000423 994 -982 0
1000423 994 -983 0
1000423 994 -984 0
1000423 994 -985 0
1000423 994 -986 0
1000423 994 -987 0
1000423 995 -969 0
1000423 995 -970 0
1000423 995 -971 0
1000423 995 -972 0
1000423 995 -973 0
1000423 995 -974 0
1000423 995 -975 0
1000423 995 -976 0
1000423 995 -977 0
1000423 995 -978 0
1000423 995 -979 0
1000423 995 -980 0
1000423 995 -981 0
1000423 995 -982 0
1000423 995 -983 0
1000423 995 -984 0
1000423 995 -985 0
1000423 995 -986 0
1000423 995 -987 0
1000423 996 -969 0
1000423 996 -970 0
1000423 996 -971 0
1000423 996 -972 0
1000423 996 -973 0
1000423 996 -974 0
1000423 996 -975 0
1000423 996 -976 0
1000423 996 -977 0
1000423 996 -978 0
1000423 996 -979 0
1000423 996 -980 0
1000423 996 -981 0
1000423 996 -982 0
1000423 996 -983 0
1000423 996 -984 0
1000423 996 -985 0
1000423 996 -986 0
1000423 996 -987 0
1000423 997 -969 0
1000423 997 -970 0
1000423 997 -971 0
1000423 997 -972 0
1000423 997 -973 0
1000423 997 -974 0
1000423 997 -975 0
1000423 997 -976 0
1000423 997 -977 0
1000423 997 -978 0
1000423 997 -979 0
1000423 997 -980 0
1000423 997 -981 0
1000423 997 -982 0
1000423 997 -983 0
1000423 997 -984 0
1000423 997 -985 0
1000423 997 -986 0
1000423 997 -987 0
1000423 998 -969 0
1000423 998 -970 0
1000423 998 -971 0
1000423 998 -972 0
1000423 998 -973 0
1000423 998 -974 0
1000423 998 -975 0
1000423 998 -976 0
1000423 998 -977 0
1000423 998 -978 0
1000423 998 -979 0
1000423 998 -980 0
1000423 998 -981 0
1000423 998 -982 0
1000423 998 -983 0
1000423 998 -984 0
1000423 998 -985 0
1000423 998 -986 0
1000423 998 -987 0
1000423 999 -969 0
1000423 999 -970 0
1000423 999 -971 0
1000423 999 -972 0
1000423 999 -973 0
1000423 999 -974 0
1000423 999 -975 0
1000423 999 -976 0
1000423 999 -977 0
1000423 999 -978 0
1000423 999 -979 0
1000423 999 -980 0
1000423 999 -981 0
1000423 999 -982 0
1000423 999 -983 0
1000423 999 -984 0
1000423 999 -985 0
1000423 999 -986 0
1000423 999 -987 0
1000423 1000 -969 0
1000423 1000 -970 0
1000423 1000 -971 0
1000423 1000 -972 0
1000423 1000 -973 0
1000423 1000 -974 0
1000423 1000 -975 0
1000423 1000 -976 0
1000423 1000 -977 0
1000423 1000 -978 0
1000423 1000 -979 0
1000423 1000 -980 0
1000423 1000 -981 0
1000423 1000 -982 0
1000423 1000 -983 0
1000423 1000 -984 0
1000423 1000 -985 0
1000423 1000 -986 0
1000423 1000 -987 0
1000423 1001 -969 0
1000423 1001 -970 0
1000423 1001 -971 0
1000423 1001 -972 0
1000423 1001 -973 0
1000423 1001 -974 0
1000423 1001 -975 0
1000423 1001 -976 0
1000423 1001 -977 0
1000423 1001 -978 0
1000423 1001 -979 0
1000423 1001 -980 0
1000423 1001 -981 0
1000423 1001 -982 0
1000423 1001 -983 0
1000423 1001 -984 0
1000423 1001 -985 0
1000423 1001 -986 0
1000423 1001 -987 0
1000423 1002 -969 0
1000423 1002 -970 0
1000423 1002 -971 0
1000423 1002 -972 0
1000423 1002 -973 0
1000423 1002 -974 0
1000423 1002 -975 0
1000423 1002 -976 0
1000423 1002 -977 0
1000423 1002 -978 0
1000423 1002 -979 0
1000423 1002 -980 0
1000423 1002 -981 0
1000423 1002 -982 0
1000423 1002 -983 0
1000423 1002 -984 0
1000423 1002 -985 0
1000423 1002 -986 0
1000423 1002 -987 0
1000423 1003 -969 0
1000423 1003 -970 0
1000423 1003 -971 0
1000423 1003 -972 0
1000423 1003 -973 0
1000423 1003 -974 0
1000423 1003 -975 0
1000423 1003 -976 0
1000423 1003 -977 0
1000423 1003 -978 0
1000423 1003 -979 0
1000423 1003 -980 0
1000423 1003 -981 0
1000423 1003 -982 0
1000423 1003 -983 0
1000423 1003 -984 0
1000423 1003 -985 0
1000423 1003 -986 0
1000423 1003 -987 0
1000423 1004 -969 0
1000423 1004 -970 0
1000423 1004 -971 0
1000423 1004 -972 0
1000423 1004 -973 0
1000423 1004 -974 0
1000423 1004 -975 0
1000423 1004 -976 0
1000423 1004 -977 0
1000423 1004 -978 0
1000423 1004 -979 0
1000423 1004 -980 0
1000423 1004 -981 0
1000423 1004 -982 0
1000423 1004 -983 0
1000423 1004 -984 0
1000423 1004 -985 0
1000423 1004 -986 0
1000423 1004 -987 0
1000423 1005 -969 0
1000423 1005 -970 0
1000423 1005 -971 0
1000423 1005 -972 0
1000423 1005 -973 0
1000423 1005 -974 0
1000423 1005 -975 0
1000423 1005 -976 0
1000423 1005 -977 0
1000423 1005 -978 0
1000423 1005 -979 0
1000423 1005 -980 0
1000423 1005 -981 0
1000423 1005 -982 0
1000423 1005 -983 0
1000423 1005 -984 0
1000423 1005 -985 0
1000423 1005 -986 0
1000423 1005 -987 0
1000423 1006 -969 0
1000423 1006 -970 0
1000423 1006 -971 0
1000423 1006 -972 0
1000423 1006 -973 0
1000423 1006 -974 0
1000423 1006 -975 0
1000423 1006 -976 0
1000423 1006 -977 0
1000423 1006 -978 0
1000423 1006 -979 0
1000423 1006 -980 0
1000423 1006 -981 0
1000423 1006 -982 0
1000423 1006 -983 0
1000423 1006 -984 0
1000423 1006 -985 0
1000423 1006 -986 0
1000423 1006 -987 0
1000423 1007 -969 0
1000423 1007 -970 0
1000423 1007 -971 0
1000423 1007 -972 0
1000423 1007 -973 0
1000423 1007 -974 0
1000423 1007 -975 0
1000423 1007 -976 0
1000423 1007 -977 0
1000423 1007 -978 0
1000423 1007 -979 0
1000423 1007 -980 0
1000423 1007 -981 0
1000423 1007 -982 0
1000423 1007 -983 0
1000423 1007 -984 0
1000423 1007 -985 0
1000423 1007 -986 0
1000423 1007 -987 0
1000423 1008 -969 0
1000423 1008 -970 0
1000423 1008 -971 0
1000423 1008 -972 0
1000423 1008 -973 0
1000423 1008 -974 0
1000423 1008 -975 0
1000423 1008 -976 0
1000423 1008 -977 0
1000423 1008 -978 0
1000423 1008 -979 0
1000423 1008 -980 0
1000423 1008 -981 0
1000423 1008 -982 0
1000423 1008 -983 0
1000423 1008 -984 0
1000423 1008 -985 0
1000423 1008 -986 0
1000423 1008 -987 0
1000423 1009 -969 0
1000423 1009 -970 0
1000423 1009 -971 0
1000423 1009 -972 0
1000423 1009 -973 0
1000423 1009 -974 0
1000423 1009 -975 0
1000423 1009 -976 0
1000423 1009 -977 0
1000423 1009 -978 0
1000423 1009 -979 0
1000423 1009 -980 0
1000423 1009 -981 0
1000423 1009 -982 0
1000423 1009 -983 0
1000423 1009 -984 0
1000423 1009 -985 0
1000423 1009 -986 0
1000423 1009 -987 0
1000423 1010 -969 0
1000423 1010 -970 0
1000423 1010 -971 0
1000423 1010 -972 0
1000423 1010 -973 0
1000423 1010 -974 0
1000423 1010 -975 0
1000423 1010 -976 0
1000423 1010 -977 0
1000423 1010 -978 0
1000423 1010 -979 0
1000423 1010 -980 0
1000423 1010 -981 0
1000423 1010 -982 0
1000423 1010 -983 0
1000423 1010 -984 0
1000423 1010 -985 0
1000423 1010 -986 0
1000423 1010 -987 0
1000423 1011 -969 0
1000423 1011 -970 0
1000423 1011 -971 0
1000423 1011 -972 0
1000423 1011 -973 0
1000423 1011 -974 0
1000423 1011 -975 0
1000423 1011 -976 0
1000423 1011 -977 0
1000423 1011 -978 0
1000423 1011 -979 0
1000423 1011 -980 0
1000423 1011 -981 0
1000423 1011 -982 0
1000423 1011 -983 0
1000423 1011 -984 0
1000423 1011 -985 0
1000423 1011 -986 0
1000423 1011 -987 0
1000423 1012 -969 0
1000423 1012 -970 0
1000423 1012 -971 0
1000423 1012 -972 0
1000423 1012 -973 0
1000423 1012 -974 0
1000423 1012 -975 0
1000423 1012 -976 0
1000423 1012 -977 0
1000423 1012 -978 0
1000423 1012 -979 0
1000423 1012 -980 0
1000423 1012 -981 0
1000423 1012 -982 0
1000423 1012 -983 0
1000423 1012 -984 0
1000423 1012 -985 0
1000423 1012 -986 0
1000423 1012 -987 0
1000423 1013 1014 1015 1016 1017 1018 1019 1020 1021 1022 1023 1024 1025 1026 1027 1028 1029 1030 1031 1032 1033 1034 1035 1036 1037 1038 1039 1040 1041 1042 1043 1044 1045 1046 1047 1048 1049 1050 1051 1052 1053 1054 1055 1056 0
1000423 -1013 1 0
1000423 -1013 485 0
1000423 1013 -1 -485 0
1000423 -1014 2 0
1000423 -1014 496 0
1000423 1014 -2 -496 0
1000423 -1015 3 0
1000423 -1015 507 0
1000423 1015 -3 -507 0
1000423 -1016 4 0
1000423 -1016 518 0
1000423 1016 -4 -518 0
1000423 -1017 5 0
1000423 -1017 529 0
1000423 1017 -5 -529 0
1000423 -1018 6 0
1000423 -1018 540 0
1000423 1018 -6 -540 0
1000423 -1019 7 0
1000423 -1019 551 0
1000423 1019 -7 -551 0
1000423 -1020 8 0
1000423 -1020 562 0
1000423 1020 -8 -562 0
1000423 -1021 9 0
1000423 -1021 573 0
1000423 1021 -9 -573 0
1000423 -1022 10 0
1000423 -1022 584 0
1000423 1022 -10 -584 0
1000423 -1023 11 0
1000423 -1023 595 0
1000423 1023 -11 -595 0
1000423 -1024 12 0
1000423 -1024 606 0
1000423 1024 -12 -606 0
1000423 -1025 13 0
1000423 -1025 617 0
1000423 1025 -13 -617 0
1000423 -1026 14 0
1000423 -1026 628 0
1000423 1026 -14 -628 0
1000423 -1027 15 0
1000423 -1027 639 0
1000423 1027 -15 -639 0
1000423 -1028 16 0
1000423 -1028 650 0
1000423 1028 -16 -650 0
1000423 -1029 17 0
1000423 -1029 661 0
1000423 1029 -17 -661 0
1000423 -1030 18 0
1000423 -1030 672 0
1000423 1030 -18 -672 0
1000423 -1031 19 0
1000423 -1031 683 0
1000423 1031 -19 -683 0
1000423 -1032 20 0
1000423 -1032 694 0
1000423 1032 -20 -694 0
1000423 -1033 21 0
1000423 -1033 705 0
1000423 1033 -21 -705 0
1000423 -1034 22 0
1000423 -1034 716 0
1000423 1034 -22 -716 0
1000423 -1035 23 0
1000423 -1035 727 0
1000423 1035 -23 -727 0
1000423 -1036 24 0
1000423 -1036 738 0
1000423 1036 -24 -738 0
1000423 -1037 25 0
1000423 -1037 749 0
1000423 1037 -25 -749 0
1000423 -1038 26 0
1000423 -1038 760 0
1000423 1038 -26 -760 0
1000423 -1039 27 0
1000423 -1039 771 0
1000423 1039 -27 -771 0
1000423 -1040 28 0
1000423 -1040 782 0
1000423 1040 -28 -782 0
1000423 -1041 29 0
1000423 -1041 793 0
1000423 1041 -29 -793 0
1000423 -1042 30 0
1000423 -1042 804 0
1000423 1042 -30 -804 0
1000423 -1043 31 0
1000423 -1043 815 0
1000423 1043 -31 -815 0
1000423 -1044 32 0
1000423 -1044 826 0
1000423 1044 -32 -826 0
1000423 -1045 33 0
1000423 -1045 837 0
1000423 1045 -33 -837 0
1000423 -1046 34 0
1000423 -1046 848 0
1000423 1046 -34 -848 0
1000423 -1047 35 0
1000423 -1047 859 0
1000423 1047 -35 -859 0
1000423 -1048 36 0
1000423 -1048 870 0
1000423 1048 -36 -870 0
1000423 -1049 37 0
1000423 -1049 881 0
1000423 1049 -37 -881 0
1000423 -1050 38 0
1000423 -1050 892 0
1000423 1050 -38 -892 0
1000423 -1051 39 0
1000423 -1051 903 0
1000423 1051 -39 -903 0
1000423 -1052 40 0
1000423 -1052 914 0
1000423 1052 -40 -914 0
1000423 -1053 41 0
1000423 -1053 925 0
1000423 1053 -41 -925 0
1000423 -1054 42 0
1000423 -1054 936 0
1000423 1054 -42 -936 0
1000423 -1055 43 0
1000423 -1055 947 0
1000423 1055 -43 -947 0
1000423 -1056 44 0
1000423 -1056 958 0
1000423 1056 -44 -958 0
1000423 1057 1058 1059 1060 1061 1062 1063 1064 1065 1066 1067 1068 1069 1070 1071 1072 1073 1074 1075 1076 1077 1078 1079 1080 1081 1082 1083 1084 1085 1086 1087 1088 1089 1090 1091 1092 1093 1094 1095 1096 1097 1098 1099 1100 0
1000423 -1057 1 0
1000423 -1057 486 0
1000423 1057 -1 -486 0
1000423 -1058 2 0
1000423 -1058 497 0
1000423 1058 -2 -497 0
1000423 -1059 3 0
1000423 -1059 508 0
1000423 1059 -3 -508 0
1000423 -1060 4 0
1000423 -1060 519 0
1000423 1060 -4 -519 0
1000423 -1061 5 0
1000423 -1061 530 0
1000423 1061 -5 -530 0
1000423 -1062 6 0
1000423 -1062 541 0
1000423 1062 -6 -541 0
1000423 -1063 7 0
1000423 -1063 552 0
1000423 1063 -7 -552 0
1000423 -1064 8 0
1000423 -1064 563 0
1000423 1064 -8 -563 0
1000423 -1065 9 0
1000423 -1065 574 0
1000423 1065 -9 -574 0
1000423 -1066 10 0
1000423 -1066 585 0
1000423 1066 -10 -585 0
1000423 -1067 11 0
1000423 -1067 596 0
1000423 1067 -11 -596 0
1000423 -1068 12 0
1000423 -1068 607 0
1000423 1068 -12 -607 0
1000423 -1069 13 0
1000423 -1069 618 0
1000423 1069 -13 -618 0
1000423 -1070 14 0
1000423 -1070 629 0
1000423 1070 -14 -629 0
1000423 -1071 15 0
1000423 -1071 640 0
1000423 1071 -15 -640 0
1000423 -1072 16 0
1000423 -1072 651 0
1000423 1072 -16 -651 0
1000423 -1073 17 0
1000423 -1073 662 0
1000423 1073 -17 -662 0
1000423 -1074 18 0
1000423 -1074 673 0
1000423 1074 -18 -673 0
1000423 -1075 19 0
1000423 -1075 684 0
1000423 1075 -19 -684 0
1000423 -1076 20 0
1000423 -1076 695 0
1000423 1076 -20 -695 0
1000423 -1077 21 0
1000423 -1077 706 0
1000423 1077 -21 -706 0
1000423 -1078 22 0
1000423 -1078 717 0
1000423 1078 -22 -717 0
1000423 -1079 23 0
1000423 -1079 728 0
1000423 1079 -23 -728 0
1000423 -1080 24 0
1000423 -1080 739 0
1000423 1080 -24 -739 0
1000423 -1081 25 0
1000423 -1081 750 0
1000423 1081 -25 -750 0
1000423 -1082 26 0
1000423 -1082 761 0
1000423 1082 -26 -761 0
1000423 -1083 27 0
1000423 -1083 772 0
1000423 1083 -27 -772 0
1000423 -1084 28 0
1000423 -1084 783 0
1000423 1084 -28 -783 0
1000423 -1085 29 0
1000423 -1085 794 0
1000423 1085 -29 -794 0
1000423 -1086 30 0
1000423 -1086 805 0
1000423 1086 -30 -805 0
1000423 -1087 31 0
1000423 -1087 816 0
1000423 1087 -31 -816 0
1000423 -1088 32 0
1000423 -1088 827 0
1000423 1088 -32 -827 0
1000423 -1089 33 0
1000423 -1089 838 0
1000423 1089 -33 -838 0
1000423 -1090 34 0
1000423 -1090 849 0
1000423 1090 -34 -849 0
1000423 -1091 35 0
1000423 -1091 860 0
1000423 1091 -35 -860 0
1000423 -1092 36 0
1000423 -1092 871 0
1000423 1092 -36 -871 0
1000423 -1093 37 0
1000423 -1093 882 0
1000423 1093 -37 -882 0
1000423 -1094 38 0
1000423 -1094 893 0
1000423 1094 -38 -893 0
1000423 -1095 39 0
1000423 -1095 904 0
1000423 1095 -39 -904 0
1000423 -1096 40 0
1000423 -1096 915 0
1000423 1096 -40 -915 0
1000423 -1097 41 0
1000423 -1097 926 0
1000423 1097 -41 -926 0
1000423 -1098 42 0
1000423 -1098 937 0
1000423 1098 -42 -937 0
1000423 -1099 43 0
1000423 -1099 948 0
1000423 1099 -43 -948 0
1000423 -1100 44 0
1000423 -1100 959 0
1000423 1100 -44 -959 0
1000423 1101 1102 1103 1104 1105 1106 1107 1108 1109 1110 1111 1112 1113 1114 1115 1116 1117 1118 1119 1120 1121 1122 1123 1124 1125 1126 1127 1128 1129 1130 1131 1132 1133 1134 1135 1136 1137 1138 1139 1140 1141 1142 1143 1144 0
1000423 -1101 1 0
1000423 -1101 487 0
1000423 1101 -1 -487 0
1000423 -1102 2 0
1000423 -1102 498 0
1000423 1102 -2 -498 0
1000423 -1103 3 0
1000423 -1103 509 0
1000423 1103 -3 -509 0
1000423 -1104 4 0
1000423 -1104 520 0
1000423 1104 -4 -520 0
1000423 -1105 5 0
1000423 -1105 531 0
1000423 1105 -5 -531 0
1000423 -1106 6 0
1000423 -1106 542 0
1000423 1106 -6 -542 0
1000423 -1107 7 0
1000423 -1107 553 0
1000423 1107 -7 -553 0
1000423 -1108 8 0
1000423 -1108 564 0
1000423 1108 -8 -564 0
1000423 -1109 9 0
1000423 -1109 575 0
1000423 1109 -9 -575 0
1000423 -1110 10 0
1000423 -1110 586 0
1000423 1110 -10 -586 0
1000423 -1111 11 0
1000423 -1111 597 0
1000423 1111 -11 -597 0
1000423 -1112 12 0
1000423 -1112 608 0
1000423 1112 -12 -608 0
1000423 -1113 13 0
1000423 -1113 619 0
1000423 1113 -13 -619 0
1000423 -1114 14 0
1000423 -1114 630 0
1000423 1114 -14 -630 0
1000423 -1115 15 0
1000423 -1115 641 0
1000423 1115 -15 -641 0
1000423 -1116 16 0
1000423 -1116 652 0
1000423 1116 -16 -652 0
1000423 -1117 17 0
1000423 -1117 663 0
1000423 1117 -17 -663 0
1000423 -1118 18 0
1000423 -1118 674 0
1000423 1118 -18 -674 0
1000423 -1119 19 0
1000423 -1119 685 0
1000423 1119 -19 -685 0
1000423 -1120 20 0
1000423 -1120 696 0
1000423 1120 -20 -696 0
1000423 -1121 21 0
1000423 -1121 707 0
1000423 1121 -21 -707 0
1000423 -1122 22 0
1000423 -1122 718 0
1000423 1122 -22 -718 0
1000423 -1123 23 0
1000423 -1123 729 0
1000423 1123 -23 -729 0
1000423 -1124 24 0
1000423 -1124 740 0
1000423 1124 -24 -740 0
1000423 -1125 25 0
1000423 -1125 751 0
1000423 1125 -25 -751 0
1000423 -1126 26 0
1000423 -1126 762 0
1000423 1126 -26 -762 0
1000423 -1127 27 0
1000423 -1127 773 0
1000423 1127 -27 -773 0
1000423 -1128 28 0
1000423 -1128 784 0
1000423 1128 -28 -784 0
1000423 -1129 29 0
1000423 -1129 795 0
1000423 1129 -29 -795 0
1000423 -1130 30 0
1000423 -1130 806 0
1000423 1130 -30 -806 0
1000423 -1131 31 0
1000423 -1131 817 0
1000423 1131 -31 -817 0
1000423 -1132 32 0
1000423 -1132 828 0
1000423 1132 -32 -828 0
1000423 -1133 33 0
1000423 -1133 839 0
1000423 1133 -33 -839 0
1000423 -1134 34 0
1000423 -1134 850 0
1000423 1134 -34 -850 0
1000423 -1135 35 0
1000423 -1135 861 0
1000423 1135 -35 -861 0
1000423 -1136 36 0
1000423 -1136 872 0
1000423 1136 -36 -872 0
1000423 -1137 37 0
1000423 -1137 883 0
1000423 1137 -37 -883 0
1000423 -1138 38 0
1000423 -1138 894 0
1000423 1138 -38 -894 0
1000423 -1139 39 0
1000423 -1139 905 0
1000423 1139 -39 -905 0
1000423 -1140 40 0
1000423 -1140 916 0
1000423 1140 -40 -916 0
1000423 -1141 41 0
1000423 -1141 927 0
1000423 1141 -41 -927 0
1000423 -1142 42 0
1000423 -1142 938 0
1000423 1142 -42 -938 0
1000423 -1143 43 0
1000423 -1143 949 0
1000423 1143 -43 -949 0
1000423 -1144 44 0
1000423 -1144 960 0
1000423 1144 -44 -960 0
1000423 -1 -488 0
1000423 -2 -499 0
1000423 -3 -510 0
1000423 -4 -521 0
1000423 -5 -532 0
1000423 -6 -543 0
1000423 -7 -554 0
1000423 -8 -565 0
1000423 -9 -576 0
1000423 -10 -587 0
1000423 -11 -598 0
1000423 -12 -609 0
1000423 -13 -620 0
1000423 -14 -631 0
1000423 -15 -642 0
1000423 -16 -653 0
1000423 -17 -664 0
1000423 -18 -675 0
1000423 -19 -686 0
1000423 -20 -697 0
1000423 -21 -708 0
1000423 -22 -719 0
1000423 -23 -730 0
1000423 -24 -741 0
1000423 -25 -752 0
1000423 -26 -763 0
1000423 -27 -774 0
1000423 -28 -785 0
1000423 -29 -796 0
1000423 -30 -807 0
1000423 -31 -818 0
1000423 -32 -829 0
1000423 -33 -840 0
1000423 -34 -851 0
1000423 -35 -862 0
1000423 -36 -873 0
1000423 -37 -884 0
1000423 -38 -895 0
1000423 -39 -906 0
1000423 -40 -917 0
1000423 -41 -928 0
1000423 -42 -939 0
1000423 -43 -950 0
1000423 -44 -961 0
1000423 1145 1146 1147 1148 1149 1150 1151 1152 1153 1154 1155 1156 1157 1158 1159 1160 1161 1162 1163 1164 1165 1166 1167 1168 1169 1170 1171 1172 1173 1174 1175 1176 1177 1178 1179 1180 1181 1182 1183 1184 1185 1186 1187 1188 0
1000423 -1145 1 0
1000423 -1145 489 0
1000423 1145 -1 -489 0
1000423 -1146 2 0
1000423 -1146 500 0
1000423 1146 -2 -500 0
1000423 -1147 3 0
1000423 -1147 511 0
1000423 1147 -3 -511 0
1000423 -1148 4 0
1000423 -1148 522 0
1000423 1148 -4 -522 0
1000423 -1149 5 0
1000423 -1149 533 0
1000423 1149 -5 -533 0
1000423 -1150 6 0
1000423 -1150 544 0
1000423 1150 -6 -544 0
1000423 -1151 7 0
1000423 -1151 555 0
1000423 1151 -7 -555 0
1000423 -1152 8 0
1000423 -1152 566 0
1000423 1152 -8 -566 0
1000423 -1153 9 0
1000423 -1153 577 0
1000423 1153 -9 -577 0
1000423 -1154 10 0
1000423 -1154 588 0
1000423 1154 -10 -588 0
1000423 -1155 11 0
1000423 -1155 599 0
1000423 1155 -11 -599 0
1000423 -1156 12 0
1000423 -1156 610 0
1000423 1156 -12 -610 0
1000423 -1157 13 0
1000423 -1157 621 0
1000423 1157 -13 -621 0
1000423 -1158 14 0
1000423 -1158 632 0
1000423 1158 -14 -632 0
1000423 -1159 15 0
1000423 -1159 643 0
1000423 1159 -15 -643 0
1000423 -1160 16 0
1000423 -1160 654 0
1000423 1160 -16 -654 0
1000423 -1161 17 0
1000423 -1161 665 0
1000423 1161 -17 -665 0
1000423 -1162 18 0
1000423 -1162 676 0
1000423 1162 -18 -676 0
1000423 -1163 19 0
1000423 -1163 687 0
1000423 1163 -19 -687 0
1000423 -1164 20 0
1000423 -1164 698 0
1000423 1164 -20 -698 0
1000423 -1165 21 0
1000423 -1165 709 0
1000423 1165 -21 -709 0
1000423 -1166 22 0
1000423 -1166 720 0
1000423 1166 -22 -720 0
1000423 -1167 23 0
1000423 -1167 731 0
1000423 1167 -23 -731 0
1000423 -1168 24 0
1000423 -1168 742 0
1000423 1168 -24 -742 0
1000423 -1169 25 0
1000423 -1169 753 0
1000423 1169 -25 -753 0
1000423 -1170 26 0
1000423 -1170 764 0
1000423 1170 -26 -764 0
1000423 -1171 27 0
1000423 -1171 775 0
1000423 1171 -27 -775 0
1000423 -1172 28 0
1000423 -1172 786 0
1000423 1172 -28 -786 0
1000423 -1173 29 0
1000423 -1173 797 0
1000423 1173 -29 -797 0
1000423 -1174 30 0
1000423 -1174 808 0
1000423 1174 -30 -808 0
1000423 -1175 31 0
1000423 -1175 819 0
1000423 1175 -31 -819 0
1000423 -1176 32 0
1000423 -1176 830 0
1000423 1176 -32 -830 0
1000423 -1177 33 0
1000423 -1177 841 0
1000423 1177 -33 -841 0
1000423 -1178 34 0
1000423 -1178 852 0
1000423 1178 -34 -852 0
1000423 -1179 35 0
1000423 -1179 863 0
1000423 1179 -35 -863 0
1000423 -1180 36 0
1000423 -1180 874 0
1000423 1180 -36 -874 0
1000423 -1181 37 0
1000423 -1181 885 0
1000423 1181 -37 -885 0
1000423 -1182 38 0
1000423 -1182 896 0
1000423 1182 -38 -896 0
1000423 -1183 39 0
1000423 -1183 907 0
1000423 1183 -39 -907 0
1000423 -1184 40 0
1000423 -1184 918 0
1000423 1184 -40 -918 0
1000423 -1185 41 0
1000423 -1185 929 0
1000423 1185 -41 -929 0
1000423 -1186 42 0
1000423 -1186 940 0
1000423 1186 -42 -940 0
1000423 -1187 43 0
1000423 -1187 951 0
1000423 1187 -43 -951 0
1000423 -1188 44 0
1000423 -1188 962 0
1000423 1188 -44 -962 0
1000423 1189 1190 1191 1192 1193 1194 1195 1196 1197 1198 1199 1200 1201 1202 1203 1204 1205 1206 1207 1208 1209 1210 1211 1212 1213 1214 1215 1216 1217 1218 1219 1220 1221 1222 1223 1224 1225 1226 1227 1228 1229 1230 1231 1232 0
1000423 -1189 1 0
1000423 -1189 490 0
1000423 1189 -1 -490 0
1000423 -1190 2 0
1000423 -1190 501 0
1000423 1190 -2 -501 0
1000423 -1191 3 0
1000423 -1191 512 0
1000423 1191 -3 -512 0
1000423 -1192 4 0
1000423 -1192 523 0
1000423 1192 -4 -523 0
1000423 -1193 5 0
1000423 -1193 534 0
1000423 1193 -5 -534 0
1000423 -1194 6 0
1000423 -1194 545 0
1000423 1194 -6 -545 0
1000423 -1195 7 0
1000423 -1195 556 0
1000423 1195 -7 -556 0
1000423 -1196 8 0
1000423 -1196 567 0
1000423 1196 -8 -567 0
1000423 -1197 9 0
1000423 -1197 578 0
1000423 1197 -9 -578 0
1000423 -1198 10 0
1000423 -1198 589 0
1000423 1198 -10 -589 0
1000423 -1199 11 0
1000423 -1199 600 0
1000423 1199 -11 -600 0
1000423 -1200 12 0
1000423 -1200 611 0
1000423 1200 -12 -611 0
1000423 -1201 13 0
1000423 -1201 622 0
1000423 1201 -13 -622 0
1000423 -1202 14 0
1000423 -1202 633 0
1000423 1202 -14 -633 0
1000423 -1203 15 0
1000423 -1203 644 0
1000423 1203 -15 -644 0
1000423 -1204 16 0
1000423 -1204 655 0
1000423 1204 -16 -655 0
1000423 -1205 17 0
1000423 -1205 666 0
1000423 1205 -17 -666 0
1000423 -1206 18 0
1000423 -1206 677 0
1000423 1206 -18 -677 0
1000423 -1207 19 0
1000423 -1207 688 0
1000423 1207 -19 -688 0
1000423 -1208 20 0
1000423 -1208 699 0
1000423 1208 -20 -699 0
1000423 -1209 21 0
1000423 -1209 710 0
1000423 1209 -21 -710 0
1000423 -1210 22 0
1000423 -1210 721 0
1000423 1210 -22 -721 0
1000423 -1211 23 0
1000423 -1211 732 0
1000423 1211 -23 -732 0
1000423 -1212 24 0
1000423 -1212 743 0
1000423 1212 -24 -743 0
1000423 -1213 25 0
1000423 -1213 754 0
1000423 1213 -25 -754 0
1000423 -1214 26 0
1000423 -1214 765 0
1000423 1214 -26 -765 0
1000423 -1215 27 0
1000423 -1215 776 0
1000423 1215 -27 -776 0
1000423 -1216 28 0
1000423 -1216 787 0
1000423 1216 -28 -787 0
1000423 -1217 29 0
1000423 -1217 798 0
1000423 1217 -29 -798 0
1000423 -1218 30 0
1000423 -1218 809 0
1000423 1218 -30 -809 0
1000423 -1219 31 0
1000423 -1219 820 0
1000423 1219 -31 -820 0
1000423 -1220 32 0
1000423 -1220 831 0
1000423 1220 -32 -831 0
1000423 -1221 33 0
1000423 -1221 842 0
1000423 1221 -33 -842 0
1000423 -1222 34 0
1000423 -1222 853 0
1000423 1222 -34 -853 0
1000423 -1223 35 0
1000423 -1223 864 0
1000423 1223 -35 -864 0
1000423 -1224 36 0
1000423 -1224 875 0
1000423 1224 -36 -875 0
1000423 -1225 37 0
1000423 -1225 886 0
1000423 1225 -37 -886 0
1000423 -1226 38 0
1000423 -1226 897 0
1000423 1226 -38 -897 0
1000423 -1227 39 0
1000423 -1227 908 0
1000423 1227 -39 -908 0
1000423 -1228 40 0
1000423 -1228 919 0
1000423 1228 -40 -919 0
1000423 -1229 41 0
1000423 -1229 930 0
1000423 1229 -41 -930 0
1000423 -1230 42 0
1000423 -1230 941 0
1000423 1230 -42 -941 0
1000423 -1231 43 0
1000423 -1231 952 0
1000423 1231 -43 -952 0
1000423 -1232 44 0
1000423 -1232 963 0
1000423 1232 -44 -963 0
1000423 -1 -491 0
1000423 -2 -502 0
1000423 -3 -513 0
1000423 -4 -524 0
1000423 -5 -535 0
1000423 -6 -546 0
1000423 -7 -557 0
1000423 -8 -568 0
1000423 -9 -579 0
1000423 -10 -590 0
1000423 -11 -601 0
1000423 -12 -612 0
1000423 -13 -623 0
1000423 -14 -634 0
1000423 -15 -645 0
1000423 -16 -656 0
1000423 -17 -667 0
1000423 -18 -678 0
1000423 -19 -689 0
1000423 -20 -700 0
1000423 -21 -711 0
1000423 -22 -722 0
1000423 -23 -733 0
1000423 -24 -744 0
1000423 -25 -755 0
1000423 -26 -766 0
1000423 -27 -777 0
1000423 -28 -788 0
1000423 -29 -799 0
1000423 -30 -810 0
1000423 -31 -821 0
1000423 -32 -832 0
1000423 -33 -843 0
1000423 -34 -854 0
1000423 -35 -865 0
1000423 -36 -876 0
1000423 -37 -887 0
1000423 -38 -898 0
1000423 -39 -909 0
1000423 -40 -920 0
1000423 -41 -931 0
1000423 -42 -942 0
1000423 -43 -953 0
1000423 -44 -964 0
1000423 -1 -492 0
1000423 -2 -503 0
1000423 -3 -514 0
1000423 -4 -525 0
1000423 -5 -536 0
1000423 -6 -547 0
1000423 -7 -558 0
1000423 -8 -569 0
1000423 -9 -580 0
1000423 -10 -591 0
1000423 -11 -602 0
1000423 -12 -613 0
1000423 -13 -624 0
1000423 -14 -635 0
1000423 -15 -646 0
1000423 -16 -657 0
1000423 -17 -668 0
1000423 -18 -679 0
1000423 -19 -690 0
1000423 -20 -701 0
1000423 -21 -712 0
1000423 -22 -723 0
1000423 -23 -734 0
1000423 -24 -745 0
1000423 -25 -756 0
1000423 -26 -767 0
1000423 -27 -778 0
1000423 -28 -789 0
1000423 -29 -800 0
1000423 -30 -811 0
1000423 -31 -822 0
1000423 -32 -833 0
1000423 -33 -844 0
1000423 -34 -855 0
1000423 -35 -866 0
1000423 -36 -877 0
1000423 -37 -888 0
1000423 -38 -899 0
1000423 -39 -910 0
1000423 -40 -921 0
1000423 -41 -932 0
1000423 -42 -943 0
1000423 -43 -954 0
1000423 -44 -965 0
1000423 -1 -493 0
1000423 -2 -504 0
1000423 -3 -515 0
1000423 -4 -526 0
1000423 -5 -537 0
1000423 -6 -548 0
1000423 -7 -559 0
1000423 -8 -570 0
1000423 -9 -581 0
1000423 -10 -592 0
1000423 -11 -603 0
1000423 -12 -614 0
1000423 -13 -625 0
1000423 -14 -636 0
1000423 -15 -647 0
1000423 -16 -658 0
1000423 -17 -669 0
1000423 -18 -680 0
1000423 -19 -691 0
1000423 -20 -702 0
1000423 -21 -713 0
1000423 -22 -724 0
1000423 -23 -735 0
1000423 -24 -746 0
1000423 -25 -757 0
1000423 -26 -768 0
1000423 -27 -779 0
1000423 -28 -790 0
1000423 -29 -801 0
1000423 -30 -812 0
1000423 -31 -823 0
1000423 -32 -834 0
1000423 -33 -845 0
1000423 -34 -856 0
1000423 -35 -867 0
1000423 -36 -878 0
1000423 -37 -889 0
1000423 -38 -900 0
1000423 -39 -911 0
1000423 -40 -922 0
1000423 -41 -933 0
1000423 -42 -944 0
1000423 -43 -955 0
1000423 -44 -966 0
1000423 -1 -494 0
1000423 -2 -505 0
1000423 -3 -516 0
1000423 -4 -527 0
1000423 -5 -538 0
1000423 -6 -549 0
1000423 -7 -560 0
1000423 -8 -571 0
1000423 -9 -582 0
1000423 -10 -593 0
1000423 -11 -604 0
1000423 -12 -615 0
1000423 -13 -626 0
1000423 -14 -637 0
1000423 -15 -648 0
1000423 -16 -659 0
1000423 -17 -670 0
1000423 -18 -681 0
1000423 -19 -692 0
1000423 -20 -703 0
1000423 -21 -714 0
1000423 -22 -725 0
1000423 -23 -736 0
1000423 -24 -747 0
1000423 -25 -758 0
1000423 -26 -769 0
1000423 -27 -780 0
1000423 -28 -791 0
1000423 -29 -802 0
1000423 -30 -813 0
1000423 -31 -824 0
1000423 -32 -835 0
1000423 -33 -846 0
1000423 -34 -857 0
1000423 -35 -868 0
1000423 -36 -879 0
1000423 -37 -890 0
1000423 -38 -901 0
1000423 -39 -912 0
1000423 -40 -923 0
1000423 -41 -934 0
1000423 -42 -945 0
1000423 -43 -956 0
1000423 -44 -967 0
1000423 -1 -495 0
1000423 -2 -506 0
1000423 -3 -517 0
1000423 -4 -528 0
1000423 -5 -539 0
1000423 -6 -550 0
1000423 -7 -561 0
1000423 -8 -572 0
1000423 -9 -583 0
1000423 -10 -594 0
1000423 -11 -605 0
1000423 -12 -616 0
1000423 -13 -627 0
1000423 -14 -638 0
1000423 -15 -649 0
1000423 -16 -660 0
1000423 -17 -671 0
1000423 -18 -682 0
1000423 -19 -693 0
1000423 -20 -704 0
1000423 -21 -715 0
1000423 -22 -726 0
1000423 -23 -737 0
1000423 -24 -748 0
1000423 -25 -759 0
1000423 -26 -770 0
1000423 -27 -781 0
1000423 -28 -792 0
1000423 -29 -803 0
1000423 -30 -814 0
1000423 -31 -825 0
1000423 -32 -836 0
1000423 -33 -847 0
1000423 -34 -858 0
1000423 -35 -869 0
1000423 -36 -880 0
1000423 -37 -891 0
1000423 -38 -902 0
1000423 -39 -913 0
1000423 -40 -924 0
1000423 -41 -935 0
1000423 -42 -946 0
1000423 -43 -957 0
1000423 -44 -968 0
1000423 1233 1234 1235 1236 1237 1238 1239 1240 1241 1242 1243 1244 1245 1246 1247 1248 1249 1250 1251 1252 1253 1254 1255 1256 1257 1258 1259 1260 1261 1262 1263 1264 1265 1266 1267 1268 1269 1270 1271 1272 1273 1274 1275 1276 0
1000423 -1233 45 0
1000423 -1233 485 0
1000423 1233 -45 -485 0
1000423 -1234 46 0
1000423 -1234 496 0
1000423 1234 -46 -496 0
1000423 -1235 47 0
1000423 -1235 507 0
1000423 1235 -47 -507 0
1000423 -1236 48 0
1000423 -1236 518 0
1000423 1236 -48 -518 0
1000423 -1237 49 0
1000423 -1237 529 0
1000423 1237 -49 -529 0
1000423 -1238 50 0
1000423 -1238 540 0
1000423 1238 -50 -540 0
1000423 -1239 51 0
1000423 -1239 551 0
1000423 1239 -51 -551 0
1000423 -1240 52 0
1000423 -1240 562 0
1000423 1240 -52 -562 0
1000423 -1241 53 0
1000423 -1241 573 0
1000423 1241 -53 -573 0
1000423 -1242 54 0
1000423 -1242 584 0
1000423 1242 -54 -584 0
1000423 -1243 55 0
1000423 -1243 595 0
1000423 1243 -55 -595 0
1000423 -1244 56 0
1000423 -1244 606 0
1000423 1244 -56 -606 0
1000423 -1245 57 0
1000423 -1245 617 0
1000423 1245 -57 -617 0
1000423 -1246 58 0
1000423 -1246 628 0
1000423 1246 -58 -628 0
1000423 -1247 59 0
1000423 -1247 639 0
1000423 1247 -59 -639 0
1000423 -1248 60 0
1000423 -1248 650 0
1000423 1248 -60 -650 0
1000423 -1249 61 0
1000423 -1249 661 0
1000423 1249 -61 -661 0
1000423 -1250 62 0
1000423 -1250 672 0
1000423 1250 -62 -672 0
1000423 -1251 63 0
1000423 -1251 683 0
1000423 1251 -63 -683 0
1000423 -1252 64 0
1000423 -1252 694 0
1000423 1252 -64 -694 0
1000423 -1253 65 0
1000423 -1253 705 0
1000423 1253 -65 -705 0
1000423 -1254 66 0
1000423 -1254 716 0
1000423 1254 -66 -716 0
1000423 -1255 67 0
1000423 -1255 727 0
1000423 1255 -67 -727 0
1000423 -1256 68 0
1000423 -1256 738 0
1000423 1256 -68 -738 0
1000423 -1257 69 0
1000423 -1257 749 0
1000423 1257 -69 -749 0
1000423 -1258 70 0
1000423 -1258 760 0
1000423 1258 -70 -760 0
1000423 -1259 71 0
1000423 -1259 771 0
1000423 1259 -71 -771 0
1000423 -1260 72 0
1000423 -1260 782 0
1000423 1260 -72 -782 0
1000423 -1261 73 0
1000423 -1261 793 0
1000423 1261 -73 -793 0
1000423 -1262 74 0
1000423 -1262 804 0
1000423 1262 -74 -804 0
1000423 -1263 75 0
1000423 -1263 815 0
1000423 1263 -75 -815 0
1000423 -1264 76 0
1000423 -1264 826 0
1000423 1264 -76 -826 0
1000423 -1265 77 0
1000423 -1265 837 0
1000423 1265 -77 -837 0
1000423 -1266 78 0
1000423 -1266 848 0
1000423 1266 -78 -848 0
1000423 -1267 79 0
1000423 -1267 859 0
1000423 1267 -79 -859 0
1000423 -1268 80 0
1000423 -1268 870 0
1000423 1268 -80 -870 0
1000423 -1269 81 0
1000423 -1269 881 0
1000423 1269 -81 -881 0
1000423 -1270 82 0
1000423 -1270 892 0
1000423 1270 -82 -892 0
1000423 -1271 83 0
1000423 -1271 903 0
1000423 1271 -83 -903 0
1000423 -1272 84 0
1000423 -1272 914 0
1000423 1272 -84 -914 0
1000423 -1273 85 0
1000423 -1273 925 0
1000423 1273 -85 -925 0
1000423 -1274 86 0
1000423 -1274 936 0
1000423 1274 -86 -936 0
1000423 -1275 87 0
1000423 -1275 947 0
1000423 1275 -87 -947 0
1000423 -1276 88 0
1000423 -1276 958 0
1000423 1276 -88 -958 0
1000423 1277 1278 1279 1280 1281 1282 1283 1284 1285 1286 1287 1288 1289 1290 1291 1292 1293 1294 1295 1296 1297 1298 1299 1300 1301 1302 1303 1304 1305 1306 1307 1308 1309 1310 1311 1312 1313 1314 1315 1316 1317 1318 1319 1320 0
1000423 -1277 45 0
1000423 -1277 486 0
1000423 1277 -45 -486 0
1000423 -1278 46 0
1000423 -1278 497 0
1000423 1278 -46 -497 0
1000423 -1279 47 0
1000423 -1279 508 0
1000423 1279 -47 -508 0
1000423 -1280 48 0
1000423 -1280 519 0
1000423 1280 -48 -519 0
1000423 -1281 49 0
1000423 -1281 530 0
1000423 1281 -49 -530 0
1000423 -1282 50 0
1000423 -1282 541 0
1000423 1282 -50 -541 0
1000423 -1283 51 0
1000423 -1283 552 0
1000423 1283 -51 -552 0
1000423 -1284 52 0
1000423 -1284 563 0
1000423 1284 -52 -563 0
1000423 -1285 53 0
1000423 -1285 574 0
1000423 1285 -53 -574 0
1000423 -1286 54 0
1000423 -1286 585 0
1000423 1286 -54 -585 0
1000423 -1287 55 0
1000423 -1287 596 0
1000423 1287 -55 -596 0
1000423 -1288 56 0
1000423 -1288 607 0
1000423 1288 -56 -607 0
1000423 -1289 57 0
1000423 -1289 618 0
1000423 1289 -57 -618 0
1000423 -1290 58 0
1000423 -1290 629 0
1000423 1290 -58 -629 0
1000423 -1291 59 0
1000423 -1291 640 0
1000423 1291 -59 -640 0
1000423 -1292 60 0
1000423 -1292 651 0
1000423 1292 -60 -651 0
1000423 -1293 61 0
1000423 -1293 662 0
1000423 1293 -61 -662 0
1000423 -1294 62 0
1000423 -1294 673 0
1000423 1294 -62 -673 0
1000423 -1295 63 0
1000423 -1295 684 0
1000423 1295 -63 -684 0
1000423 -1296 64 0
1000423 -1296 695 0
1000423 1296 -64 -695 0
1000423 -1297 65 0
1000423 -1297 706 0
1000423 1297 -65 -706 0
1000423 -1298 66 0
1000423 -1298 717 0
1000423 1298 -66 -717 0
1000423 -1299 67 0
1000423 -1299 728 0
1000423 1299 -67 -728 0
1000423 -1300 68 0
1000423 -1300 739 0
1000423 1300 -68 -739 0
1000423 -1301 69 0
1000423 -1301 750 0
1000423 1301 -69 -750 0
1000423 -1302 70 0
1000423 -1302 761 0
1000423 1302 -70 -761 0
1000423 -1303 71 0
1000423 -1303 772 0
1000423 1303 -71 -772 0
1000423 -1304 72 0
1000423 -1304 783 0
1000423 1304 -72 -783 0
1000423 -1305 73 0
1000423 -1305 794 0
1000423 1305 -73 -794 0
1000423 -1306 74 0
1000423 -1306 805 0
1000423 1306 -74 -805 0
1000423 -1307 75 0
1000423 -1307 816 0
1000423 1307 -75 -816 0
1000423 -1308 76 0
1000423 -1308 827 0
1000423 1308 -76 -827 0
1000423 -1309 77 0
1000423 -1309 838 0
1000423 1309 -77 -838 0
1000423 -1310 78 0
1000423 -1310 849 0
1000423 1310 -78 -849 0
1000423 -1311 79 0
1000423 -1311 860 0
1000423 1311 -79 -860 0
1000423 -1312 80 0
1000423 -1312 871 0
1000423 1312 -80 -871 0
1000423 -1313 81 0
1000423 -1313 882 0
1000423 1313 -81 -882 0
1000423 -1314 82 0
1000423 -1314 893 0
1000423 1314 -82 -893 0
1000423 -1315 83 0
1000423 -1315 904 0
1000423 1315 -83 -904 0
1000423 -1316 84 0
1000423 -1316 915 0
1000423 1316 -84 -915 0
1000423 -1317 85 0
1000423 -1317 926 0
1000423 1317 -85 -926 0
1000423 -1318 86 0
1000423 -1318 937 0
1000423 1318 -86 -937 0
1000423 -1319 87 0
1000423 -1319 948 0
1000423 1319 -87 -948 0
1000423 -1320 88 0
1000423 -1320 959 0
1000423 1320 -88 -959 0
1000423 1321 1322 1323 1324 1325 1326 1327 1328 1329 1330 1331 1332 1333 1334 1335 1336 1337 1338 1339 1340 1341 1342 1343 1344 1345 1346 1347 1348 1349 1350 1351 1352 1353 1354 1355 1356 1357 1358 1359 1360 1361 1362 1363 1364 0
1000423 -1321 45 0
1000423 -1321 487 0
1000423 1321 -45 -487 0
1000423 -1322 46 0
1000423 -1322 498 0
1000423 1322 -46 -498 0
1000423 -1323 47 0
1000423 -1323 509 0
1000423 1323 -47 -509 0
1000423 -1324 48 0
1000423 -1324 520 0
1000423 1324 -48 -520 0
1000423 -1325 49 0
1000423 -1325 531 0
1000423 1325 -49 -531 0
1000423 -1326 50 0
1000423 -1326 542 0
1000423 1326 -50 -542 0
1000423 -1327 51 0
1000423 -1327 553 0
1000423 1327 -51 -553 0
1000423 -1328 52 0
1000423 -1328 564 0
1000423 1328 -52 -564 0
1000423 -1329 53 0
1000423 -1329 575 0
1000423 1329 -53 -575 0
1000423 -1330 54 0
1000423 -1330 586 0
1000423 1330 -54 -586 0
1000423 -1331 55 0
1000423 -1331 597 0
1000423 1331 -55 -597 0
1000423 -1332 56 0
1000423 -1332 608 0
1000423 1332 -56 -608 0
1000423 -1333 57 0
1000423 -1333 619 0
1000423 1333 -57 -619 0
1000423 -1334 58 0
1000423 -1334 630 0
1000423 1334 -58 -630 0
1000423 -1335 59 0
1000423 -1335 641 0
1000423 1335 -59 -641 0
1000423 -1336 60 0
1000423 -1336 652 0
1000423 1336 -60 -652 0
1000423 -1337 61 0
1000423 -1337 663 0
1000423 1337 -61 -663 0
1000423 -1338 62 0
1000423 -1338 674 0
1000423 1338 -62 -674 0
1000423 -1339 63 0
1000423 -1339 685 0
1000423 1339 -63 -685 0
1000423 -1340 64 0
1000423 -1340 696 0
1000423 1340 -64 -696 0
1000423 -1341 65 0
1000423 -1341 707 0
1000423 1341 -65 -707 0
1000423 -1342 66 0
1000423 -1342 718 0
1000423 1342 -66 -718 0
1000423 -1343 67 0
1000423 -1343 729 0
1000423 1343 -67 -729 0
1000423 -1344 68 0
1000423 -1344 740 0
1000423 1344 -68 -740 0
1000423 -1345 69 0
1000423 -1345 751 0
1000423 1345 -69 -751 0
1000423 -1346 70 0
1000423 -1346 762 0
1000423 1346 -70 -762 0
1000423 -1347 71 0
1000423 -1347 773 0
1000423 1347 -71 -773 0
1000423 -1348 72 0
1000423 -1348 784 0
1000423 1348 -72 -784 0
1000423 -1349 73 0
1000423 -1349 795 0
1000423 1349 -73 -795 0
1000423 -1350 74 0
1000423 -1350 806 0
1000423 1350 -74 -806 0
1000423 -1351 75 0
1000423 -1351 817 0
1000423 1351 -75 -817 0
1000423 -1352 76 0
1000423 -1352 828 0
1000423 1352 -76 -828 0
1000423 -1353 77 0
1000423 -1353 839 0
1000423 1353 -77 -839 0
1000423 -1354 78 0
1000423 -1354 850 0
1000423 1354 -78 -850 0
1000423 -1355 79 0
1000423 -1355 861 0
1000423 1355 -79 -861 0
1000423 -1356 80 0
1000423 -1356 872 0
1000423 1356 -80 -872 0
1000423 -1357 81 0
1000423 -1357 883 0
1000423 1357 -81 -883 0
1000423 -1358 82 0
1000423 -1358 894 0
1000423 1358 -82 -894 0
1000423 -1359 83 0
1000423 -1359 905 0
1000423 1359 -83 -905 0
1000423 -1360 84 0
1000423 -1360 916 0
1000423 1360 -84 -916 0
1000423 -1361 85 0
1000423 -1361 927 0
1000423 1361 -85 -927 0
1000423 -1362 86 0
1000423 -1362 938 0
1000423 1362 -86 -938 0
1000423 -1363 87 0
1000423 -1363 949 0
1000423 1363 -87 -949 0
1000423 -1364 88 0
1000423 -1364 960 0
1000423 1364 -88 -960 0
1000423 1365 1366 1367 1368 1369 1370 1371 1372 1373 1374 1375 1376 1377 1378 1379 1380 1381 1382 1383 1384 1385 1386 1387 1388 1389 1390 1391 1392 1393 1394 1395 1396 1397 1398 1399 1400 1401 1402 1403 1404 1405 1406 1407 1408 0
1000423 -1365 45 0
1000423 -1365 488 0
1000423 1365 -45 -488 0
1000423 -1366 46 0
1000423 -1366 499 0
1000423 1366 -46 -499 0
1000423 -1367 47 0
1000423 -1367 510 0
1000423 1367 -47 -510 0
1000423 -1368 48 0
1000423 -1368 521 0
1000423 1368 -48 -521 0
1000423 -1369 49 0
1000423 -1369 532 0
1000423 1369 -49 -532 0
1000423 -1370 50 0
1000423 -1370 543 0
1000423 1370 -50 -543 0
1000423 -1371 51 0
1000423 -1371 554 0
1000423 1371 -51 -554 0
1000423 -1372 52 0
1000423 -1372 565 0
1000423 1372 -52 -565 0
1000423 -1373 53 0
1000423 -1373 576 0
1000423 1373 -53 -576 0
1000423 -1374 54 0
1000423 -1374 587 0
1000423 1374 -54 -587 0
1000423 -1375 55 0
1000423 -1375 598 0
1000423 1375 -55 -598 0
1000423 -1376 56 0
1000423 -1376 609 0
1000423 1376 -56 -609 0
1000423 -1377 57 0
1000423 -1377 620 0
1000423 1377 -57 -620 0
1000423 -1378 58 0
1000423 -1378 631 0
1000423 1378 -58 -631 0
1000423 -1379 59 0
1000423 -1379 642 0
1000423 1379 -59 -642 0
1000423 -1380 60 0
1000423 -1380 653 0
1000423 1380 -60 -653 0
1000423 -1381 61 0
1000423 -1381 664 0
1000423 1381 -61 -664 0
1000423 -1382 62 0
1000423 -1382 675 0
1000423 1382 -62 -675 0
1000423 -1383 63 0
1000423 -1383 686 0
1000423 1383 -63 -686 0
1000423 -1384 64 0
1000423 -1384 697 0
1000423 1384 -64 -697 0
1000423 -1385 65 0
1000423 -1385 708 0
1000423 1385 -65 -708 0
1000423 -1386 66 0
1000423 -1386 719 0
1000423 1386 -66 -719 0
1000423 -1387 67 0
1000423 -1387 730 0
1000423 1387 -67 -730 0
1000423 -1388 68 0
1000423 -1388 741 0
1000423 1388 -68 -741 0
1000423 -1389 69 0
1000423 -1389 752 0
1000423 1389 -69 -752 0
1000423 -1390 70 0
1000423 -1390 763 0
1000423 1390 -70 -763 0
1000423 -1391 71 0
1000423 -1391 774 0
1000423 1391 -71 -774 0
1000423 -1392 72 0
1000423 -1392 785 0
1000423 1392 -72 -785 0
1000423 -1393 73 0
1000423 -1393 796 0
1000423 1393 -73 -796 0
1000423 -1394 74 0
1000423 -1394 807 0
1000423 1394 -74 -807 0
1000423 -1395 75 0
1000423 -1395 818 0
1000423 1395 -75 -818 0
1000423 -1396 76 0
1000423 -1396 829 0
1000423 1396 -76 -829 0
1000423 -1397 77 0
1000423 -1397 840 0
1000423 1397 -77 -840 0
1000423 -1398 78 0
1000423 -1398 851 0
1000423 1398 -78 -851 0
1000423 -1399 79 0
1000423 -1399 862 0
1000423 1399 -79 -862 0
1000423 -1400 80 0
1000423 -1400 873 0
1000423 1400 -80 -873 0
1000423 -1401 81 0
1000423 -1401 884 0
1000423 1401 -81 -884 0
1000423 -1402 82 0
1000423 -1402 895 0
1000423 1402 -82 -895 0
1000423 -1403 83 0
1000423 -1403 906 0
1000423 1403 -83 -906 0
1000423 -1404 84 0
1000423 -1404 917 0
1000423 1404 -84 -917 0
1000423 -1405 85 0
1000423 -1405 928 0
1000423 1405 -85 -928 0
1000423 -1406 86 0
1000423 -1406 939 0
1000423 1406 -86 -939 0
1000423 -1407 87 0
1000423 -1407 950 0
1000423 1407 -87 -950 0
1000423 -1408 88 0
1000423 -1408 961 0
1000423 1408 -88 -961 0
1000423 1409 1410 1411 1412 1413 1414 1415 1416 1417 1418 1419 1420 1421 1422 1423 1424 1425 1426 1427 1428 1429 1430 1431 1432 1433 1434 1435 1436 1437 1438 1439 1440 1441 1442 1443 1444 1445 1446 1447 1448 1449 1450 1451 1452 0
1000423 -1409 45 0
1000423 -1409 489 0
1000423 1409 -45 -489 0
1000423 -1410 46 0
1000423 -1410 500 0
1000423 1410 -46 -500 0
1000423 -1411 47 0
1000423 -1411 511 0
1000423 1411 -47 -511 0
1000423 -1412 48 0
1000423 -1412 522 0
1000423 1412 -48 -522 0
1000423 -1413 49 0
1000423 -1413 533 0
1000423 1413 -49 -533 0
1000423 -1414 50 0
1000423 -1414 544 0
1000423 1414 -50 -544 0
1000423 -1415 51 0
1000423 -1415 555 0
1000423 1415 -51 -555 0
1000423 -1416 52 0
1000423 -1416 566 0
1000423 1416 -52 -566 0
1000423 -1417 53 0
1000423 -1417 577 0
1000423 1417 -53 -577 0
1000423 -1418 54 0
1000423 -1418 588 0
1000423 1418 -54 -588 0
1000423 -1419 55 0
1000423 -1419 599 0
1000423 1419 -55 -599 0
1000423 -1420 56 0
1000423 -1420 610 0
1000423 1420 -56 -610 0
1000423 -1421 57 0
1000423 -1421 621 0
1000423 1421 -57 -621 0
1000423 -1422 58 0
1000423 -1422 632 0
1000423 1422 -58 -632 0
1000423 -1423 59 0
1000423 -1423 643 0
1000423 1423 -59 -643 0
1000423 -1424 60 0
1000423 -1424 654 0
1000423 1424 -60 -654 0
1000423 -1425 61 0
1000423 -1425 665 0
1000423 1425 -61 -665 0
1000423 -1426 62 0
1000423 -1426 676 0
1000423 1426 -62 -676 0
1000423 -1427 63 0
1000423 -1427 687 0
1000423 1427 -63 -687 0
1000423 -1428 64 0
1000423 -1428 698 0
1000423 1428 -64 -698 0
1000423 -1429 65 0
1000423 -1429 709 0
1000423 1429 -65 -709 0
1000423 -1430 66 0
1000423 -1430 720 0
1000423 1430 -66 -720 0
1000423 -1431 67 0
1000423 -1431 731 0
1000423 1431 -67 -731 0
1000423 -1432 68 0
1000423 -1432 742 0
1000423 1432 -68 -742 0
1000423 -1433 69 0
1000423 -1433 753 0
1000423 1433 -69 -753 0
1000423 -1434 70 0
1000423 -1434 764 0
1000423 1434 -70 -764 0
1000423 -1435 71 0
1000423 -1435 775 0
1000423 1435 -71 -775 0
1000423 -1436 72 0
1000423 -1436 786 0
1000423 1436 -72 -786 0
1000423 -1437 73 0
1000423 -1437 797 0
1000423 1437 -73 -797 0
1000423 -1438 74 0
1000423 -1438 808 0
1000423 1438 -74 -808 0
1000423 -1439 75 0
1000423 -1439 819 0
1000423 1439 -75 -819 0
1000423 -1440 76 0
1000423 -1440 830 0
1000423 1440 -76 -830 0
1000423 -1441 77 0
1000423 -1441 841 0
1000423 1441 -77 -841 0
1000423 -1442 78 0
1000423 -1442 852 0
1000423 1442 -78 -852 0
1000423 -1443 79 0
1000423 -1443 863 0
1000423 1443 -79 -863 0
1000423 -1444 80 0
1000423 -1444 874 0
1000423 1444 -80 -874 0
1000423 -1445 81 0
1000423 -1445 885 0
1000423 1445 -81 -885 0
1000423 -1446 82 0
1000423 -1446 896 0
1000423 1446 -82 -896 0
1000423 -1447 83 0
1000423 -1447 907 0
1000423 1447 -83 -907 0
1000423 -1448 84 0
1000423 -1448 918 0
1000423 1448 -84 -918 0
1000423 -1449 85 0
1000423 -1449 929 0
1000423 1449 -85 -929 0
1000423 -1450 86 0
1000423 -1450 940 0
1000423 1450 -86 -940 0
1000423 -1451 87 0
1000423 -1451 951 0
1000423 1451 -87 -951 0
1000423 -1452 88 0
1000423 -1452 962 0
1000423 1452 -88 -962 0
1000423 1453 1454 1455 1456 1457 1458 1459 1460 1461 1462 1463 1464 1465 1466 1467 1468 1469 1470 1471 1472 1473 1474 1475 1476 1477 1478 1479 1480 1481 1482 1483 1484 1485 1486 1487 1488 1489 1490 1491 1492 1493 1494 1495 1496 0
1000423 -1453 45 0
1000423 -1453 490 0
1000423 1453 -45 -490 0
1000423 -1454 46 0
1000423 -1454 501 0
1000423 1454 -46 -501 0
1000423 -1455 47 0
1000423 -1455 512 0
1000423 1455 -47 -512 0
1000423 -1456 48 0
1000423 -1456 523 0
1000423 1456 -48 -523 0
1000423 -1457 49 0
1000423 -1457 534 0
1000423 1457 -49 -534 0
1000423 -1458 50 0
1000423 -1458 545 0
1000423 1458 -50 -545 0
1000423 -1459 51 0
1000423 -1459 556 0
1000423 1459 -51 -556 0
1000423 -1460 52 0
1000423 -1460 567 0
1000423 1460 -52 -567 0
1000423 -1461 53 0
1000423 -1461 578 0
1000423 1461 -53 -578 0
1000423 -1462 54 0
1000423 -1462 589 0
1000423 1462 -54 -589 0
1000423 -1463 55 0
1000423 -1463 600 0
1000423 1463 -55 -600 0
1000423 -1464 56 0
1000423 -1464 611 0
1000423 1464 -56 -611 0
1000423 -1465 57 0
1000423 -1465 622 0
1000423 1465 -57 -622 0
1000423 -1466 58 0
1000423 -1466 633 0
1000423 1466 -58 -633 0
1000423 -1467 59 0
1000423 -1467 644 0
1000423 1467 -59 -644 0
1000423 -1468 60 0
1000423 -1468 655 0
1000423 1468 -60 -655 0
1000423 -1469 61 0
1000423 -1469 666 0
1000423 1469 -61 -666 0
1000423 -1470 62 0
1000423 -1470 677 0
1000423 1470 -62 -677 0
1000423 -1471 63 0
1000423 -1471 688 0
1000423 1471 -63 -688 0
1000423 -1472 64 0
1000423 -1472 699 0
1000423 1472 -64 -699 0
1000423 -1473 65 0
1000423 -1473 710 0
1000423 1473 -65 -710 0
1000423 -1474 66 0
1000423 -1474 721 0
1000423 1474 -66 -721 0
1000423 -1475 67 0
1000423 -1475 732 0
1000423 1475 -67 -732 0
1000423 -1476 68 0
1000423 -1476 743 0
1000423 1476 -68 -743 0
1000423 -1477 69 0
1000423 -1477 754 0
1000423 1477 -69 -754 0
1000423 -1478 70 0
1000423 -1478 765 0
1000423 1478 -70 -765 0
1000423 -1479 71 0
1000423 -1479 776 0
1000423 1479 -71 -776 0
1000423 -1480 72 0
1000423 -1480 787 0
1000423 1480 -72 -787 0
1000423 -1481 73 0
1000423 -1481 798 0
1000423 1481 -73 -798 0
1000423 -1482 74 0
1000423 -1482 809 0
1000423 1482 -74 -809 0
1000423 -1483 75 0
1000423 -1483 820 0
1000423 1483 -75 -820 0
1000423 -1484 76 0
1000423 -1484 831 0
1000423 1484 -76 -831 0
1000423 -1485 77 0
1000423 -1485 842 0
1000423 1485 -77 -842 0
1000423 -1486 78 0
1000423 -1486 853 0
1000423 1486 -78 -853 0
1000423 -1487 79 0
1000423 -1487 864 0
1000423 1487 -79 -864 0
1000423 -1488 80 0
1000423 -1488 875 0
1000423 1488 -80 -875 0
1000423 -1489 81 0
1000423 -1489 886 0
1000423 1489 -81 -886 0
1000423 -1490 82 0
1000423 -1490 897 0
1000423 1490 -82 -897 0
1000423 -1491 83 0
1000423 -1491 908 0
1000423 1491 -83 -908 0
1000423 -1492 84 0
1000423 -1492 919 0
1000423 1492 -84 -919 0
1000423 -1493 85 0
1000423 -1493 930 0
1000423 1493 -85 -930 0
1000423 -1494 86 0
1000423 -1494 941 0
1000423 1494 -86 -941 0
1000423 -1495 87 0
1000423 -1495 952 0
1000423 1495 -87 -952 0
1000423 -1496 88 0
1000423 -1496 963 0
1000423 1496 -88 -963 0
1000423 -45 -491 0
1000423 -46 -502 0
1000423 -47 -513 0
1000423 -48 -524 0
1000423 -49 -535 0
1000423 -50 -546 0
1000423 -51 -557 0
1000423 -52 -568 0
1000423 -53 -579 0
1000423 -54 -590 0
1000423 -55 -601 0
1000423 -56 -612 0
1000423 -57 -623 0
1000423 -58 -634 0
1000423 -59 -645 0
1000423 -60 -656 0
1000423 -61 -667 0
1000423 -62 -678 0
1000423 -63 -689 0
1000423 -64 -700 0
1000423 -65 -711 0
1000423 -66 -722 0
1000423 -67 -733 0
1000423 -68 -744 0
1000423 -69 -755 0
1000423 -70 -766 0
1000423 -71 -777 0
1000423 -72 -788 0
1000423 -73 -799 0
1000423 -74 -810 0
1000423 -75 -821 0
1000423 -76 -832 0
1000423 -77 -843 0
1000423 -78 -854 0
1000423 -79 -865 0
1000423 -80 -876 0
1000423 -81 -887 0
1000423 -82 -898 0
1000423 -83 -909 0
1000423 -84 -920 0
1000423 -85 -931 0
1000423 -86 -942 0
1000423 -87 -953 0
1000423 -88 -964 0
1000423 -45 -492 0
1000423 -46 -503 0
1000423 -47 -514 0
1000423 -48 -525 0
1000423 -49 -536 0
1000423 -50 -547 0
1000423 -51 -558 0
1000423 -52 -569 0
1000423 -53 -580 0
1000423 -54 -591 0
1000423 -55 -602 0
1000423 -56 -613 0
1000423 -57 -624 0
1000423 -58 -635 0
1000423 -59 -646 0
1000423 -60 -657 0
1000423 -61 -668 0
1000423 -62 -679 0
1000423 -63 -690 0
1000423 -64 -701 0
1000423 -65 -712 0
1000423 -66 -723 0
1000423 -67 -734 0
1000423 -68 -745 0
1000423 -69 -756 0
1000423 -70 -767 0
1000423 -71 -778 0
1000423 -72 -789 0
1000423 -73 -800 0
1000423 -74 -811 0
1000423 -75 -822 0
1000423 -76 -833 0
1000423 -77 -844 0
1000423 -78 -855 0
1000423 -79 -866 0
1000423 -80 -877 0
1000423 -81 -888 0
1000423 -82 -899 0
1000423 -83 -910 0
1000423 -84 -921 0
1000423 -85 -932 0
1000423 -86 -943 0
1000423 -87 -954 0
1000423 -88 -965 0
1000423 -45 -493 0
1000423 -46 -504 0
1000423 -47 -515 0
1000423 -48 -526 0
1000423 -49 -537 0
1000423 -50 -548 0
1000423 -51 -559 0
1000423 -52 -570 0
1000423 -53 -581 0
1000423 -54 -592 0
1000423 -55 -603 0
1000423 -56 -614 0
1000423 -57 -625 0
1000423 -58 -636 0
1000423 -59 -647 0
1000423 -60 -658 0
1000423 -61 -669 0
1000423 -62 -680 0
1000423 -63 -691 0
1000423 -64 -702 0
1000423 -65 -713 0
1000423 -66 -724 0
1000423 -67 -735 0
1000423 -68 -746 0
1000423 -69 -757 0
1000423 -70 -768 0
1000423 -71 -779 0
1000423 -72 -790 0
1000423 -73 -801 0
1000423 -74 -812 0
1000423 -75 -823 0
1000423 -76 -834 0
1000423 -77 -845 0
1000423 -78 -856 0
1000423 -79 -867 0
1000423 -80 -878 0
1000423 -81 -889 0
1000423 -82 -900 0
1000423 -83 -911 0
1000423 -84 -922 0
1000423 -85 -933 0
1000423 -86 -944 0
1000423 -87 -955 0
1000423 -88 -966 0
1000423 -45 -494 0
1000423 -46 -505 0
1000423 -47 -516 0
1000423 -48 -527 0
1000423 -49 -538 0
1000423 -50 -549 0
1000423 -51 -560 0
1000423 -52 -571 0
1000423 -53 -582 0
1000423 -54 -593 0
1000423 -55 -604 0
1000423 -56 -615 0
1000423 -57 -626 0
1000423 -58 -637 0
1000423 -59 -648 0
1000423 -60 -659 0
1000423 -61 -670 0
1000423 -62 -681 0
1000423 -63 -692 0
1000423 -64 -703 0
1000423 -65 -714 0
1000423 -66 -725 0
1000423 -67 -736 0
1000423 -68 -747 0
1000423 -69 -758 0
1000423 -70 -769 0
1000423 -71 -780 0
1000423 -72 -791 0
1000423 -73 -802 0
1000423 -74 -813 0
1000423 -75 -824 0
1000423 -76 -835 0
1000423 -77 -846 0
1000423 -78 -857 0
1000423 -79 -868 0
1000423 -80 -879 0
1000423 -81 -890 0
1000423 -82 -901 0
1000423 -83 -912 0
1000423 -84 -923 0
1000423 -85 -934 0
1000423 -86 -945 0
1000423 -87 -956 0
1000423 -88 -967 0
1000423 -45 -495 0
1000423 -46 -506 0
1000423 -47 -517 0
1000423 -48 -528 0
1000423 -49 -539 0
1000423 -50 -550 0
1000423 -51 -561 0
1000423 -52 -572 0
1000423 -53 -583 0
1000423 -54 -594 0
1000423 -55 -605 0
1000423 -56 -616 0
1000423 -57 -627 0
1000423 -58 -638 0
1000423 -59 -649 0
1000423 -60 -660 0
1000423 -61 -671 0
1000423 -62 -682 0
1000423 -63 -693 0
1000423 -64 -704 0
1000423 -65 -715 0
1000423 -66 -726 0
1000423 -67 -737 0
1000423 -68 -748 0
1000423 -69 -759 0
1000423 -70 -770 0
1000423 -71 -781 0
1000423 -72 -792 0
1000423 -73 -803 0
1000423 -74 -814 0
1000423 -75 -825 0
1000423 -76 -836 0
1000423 -77 -847 0
1000423 -78 -858 0
1000423 -79 -869 0
1000423 -80 -880 0
1000423 -81 -891 0
1000423 -82 -902 0
1000423 -83 -913 0
1000423 -84 -924 0
1000423 -85 -935 0
1000423 -86 -946 0
1000423 -87 -957 0
1000423 -88 -968 0
1000423 1497 1498 1499 1500 1501 1502 1503 1504 1505 1506 1507 1508 1509 1510 1511 1512 1513 1514 1515 1516 1517 1518 1519 1520 1521 1522 1523 1524 1525 1526 1527 1528 1529 1530 1531 1532 1533 1534 1535 1536 1537 1538 1539 1540 0
1000423 -1497 89 0
1000423 -1497 485 0
1000423 1497 -89 -485 0
1000423 -1498 90 0
1000423 -1498 496 0
1000423 1498 -90 -496 0
1000423 -1499 91 0
1000423 -1499 507 0
1000423 1499 -91 -507 0
1000423 -1500 92 0
1000423 -1500 518 0
1000423 1500 -92 -518 0
1000423 -1501 93 0
1000423 -1501 529 0
1000423 1501 -93 -529 0
1000423 -1502 94 0
1000423 -1502 540 0
1000423 1502 -94 -540 0
1000423 -1503 95 0
1000423 -1503 551 0
1000423 1503 -95 -551 0
1000423 -1504 96 0
1000423 -1504 562 0
1000423 1504 -96 -562 0
1000423 -1505 97 0
1000423 -1505 573 0
1000423 1505 -97 -573 0
1000423 -1506 98 0
1000423 -1506 584 0
1000423 1506 -98 -584 0
1000423 -1507 99 0
1000423 -1507 595 0
1000423 1507 -99 -595 0
1000423 -1508 100 0
1000423 -1508 606 0
1000423 1508 -100 -606 0
1000423 -1509 101 0
1000423 -1509 617 0
1000423 1509 -101 -617 0
1000423 -1510 102 0
1000423 -1510 628 0
1000423 1510 -102 -628 0
1000423 -1511 103 0
1000423 -1511 639 0
1000423 1511 -103 -639 0
1000423 -1512 104 0
1000423 -1512 650 0
1000423 1512 -104 -650 0
1000423 -1513 105 0
1000423 -1513 661 0
1000423 1513 -105 -661 0
1000423 -1514 106 0
1000423 -1514 672 0
1000423 1514 -106 -672 0
1000423 -1515 107 0
1000423 -1515 683 0
1000423 1515 -107 -683 0
1000423 -1516 108 0
1000423 -1516 694 0
1000423 1516 -108 -694 0
1000423 -1517 109 0
1000423 -1517 705 0
1000423 1517 -109 -705 0
1000423 -1518 110 0
1000423 -1518 716 0
1000423 1518 -110 -716 0
1000423 -1519 111 0
1000423 -1519 727 0
1000423 1519 -111 -727 0
1000423 -1520 112 0
1000423 -1520 738 0
1000423 1520 -112 -738 0
1000423 -1521 113 0
1000423 -1521 749 0
1000423 1521 -113 -749 0
1000423 -1522 114 0
1000423 -1522 760 0
1000423 1522 -114 -760 0
1000423 -1523 115 0
1000423 -1523 771 0
1000423 1523 -115 -771 0
1000423 -1524 116 0
1000423 -1524 782 0
1000423 1524 -116 -782 0
1000423 -1525 117 0
1000423 -1525 793 0
1000423 1525 -117 -793 0
1000423 -1526 118 0
1000423 -1526 804 0
1000423 1526 -118 -804 0
1000423 -1527 119 0
1000423 -1527 815 0
1000423 1527 -119 -815 0
1000423 -1528 120 0
1000423 -1528 826 0
1000423 1528 -120 -826 0
1000423 -1529 121 0
1000423 -1529 837 0
1000423 1529 -121 -837 0
1000423 -1530 122 0
1000423 -1530 848 0
1000423 1530 -122 -848 0
1000423 -1531 123 0
1000423 -1531 859 0
1000423 1531 -123 -859 0
1000423 -1532 124 0
1000423 -1532 870 0
1000423 1532 -124 -870 0
1000423 -1533 125 0
1000423 -1533 881 0
1000423 1533 -125 -881 0
1000423 -1534 126 0
1000423 -1534 892 0
1000423 1534 -126 -892 0
1000423 -1535 127 0
1000423 -1535 903 0
1000423 1535 -127 -903 0
1000423 -1536 128 0
1000423 -1536 914 0
1000423 1536 -128 -914 0
1000423 -1537 129 0
1000423 -1537 925 0
1000423 1537 -129 -925 0
1000423 -1538 130 0
1000423 -1538 936 0
1000423 1538 -130 -936 0
1000423 -1539 131 0
1000423 -1539 947 0
1000423 1539 -131 -947 0
1000423 -1540 132 0
1000423 -1540 958 0
1000423 1540 -132 -958 0
1000423 -89 -486 0
1000423 -90 -497 0
1000423 -91 -508 0
1000423 -92 -519 0
1000423 -93 -530 0
1000423 -94 -541 0
1000423 -95 -552 0
1000423 -96 -563 0
1000423 -97 -574 0
1000423 -98 -585 0
1000423 -99 -596 0
1000423 -100 -607 0
1000423 -101 -618 0
1000423 -102 -629 0
1000423 -103 -640 0
1000423 -104 -651 0
1000423 -105 -662 0
1000423 -106 -673 0
1000423 -107 -684 0
1000423 -108 -695 0
1000423 -109 -706 0
1000423 -110 -717 0
1000423 -111 -728 0
1000423 -112 -739 0
1000423 -113 -750 0
1000423 -114 -761 0
1000423 -115 -772 0
1000423 -116 -783 0
1000423 -117 -794 0
1000423 -118 -805 0
1000423 -119 -816 0
1000423 -120 -827 0
1000423 -121 -838 0
1000423 -122 -849 0
1000423 -123 -860 0
1000423 -124 -871 0
1000423 -125 -882 0
1000423 -126 -893 0
1000423 -127 -904 0
1000423 -128 -915 0
1000423 -129 -926 0
1000423 -130 -937 0
1000423 -131 -948 0
1000423 -132 -959 0
1000423 -89 -487 0
1000423 -90 -498 0
1000423 -91 -509 0
1000423 -92 -520 0
1000423 -93 -531 0
1000423 -94 -542 0
1000423 -95 -553 0
1000423 -96 -564 0
1000423 -97 -575 0
1000423 -98 -586 0
1000423 -99 -597 0
1000423 -100 -608 0
1000423 -101 -619 0
1000423 -102 -630 0
1000423 -103 -641 0
1000423 -104 -652 0
1000423 -105 -663 0
1000423 -106 -674 0
1000423 -107 -685 0
1000423 -108 -696 0
1000423 -109 -707 0
1000423 -110 -718 0
1000423 -111 -729 0
1000423 -112 -740 0
1000423 -113 -751 0
1000423 -114 -762 0
1000423 -115 -773 0
1000423 -116 -784 0
1000423 -117 -795 0
1000423 -118 -806 0
1000423 -119 -817 0
1000423 -120 -828 0
1000423 -121 -839 0
1000423 -122 -850 0
1000423 -123 -861 0
1000423 -124 -872 0
1000423 -125 -883 0
1000423 -126 -894 0
1000423 -127 -905 0
1000423 -128 -916 0
1000423 -129 -927 0
1000423 -130 -938 0
1000423 -131 -949 0
1000423 -132 -960 0
1000423 -89 -488 0
1000423 -90 -499 0
1000423 -91 -510 0
1000423 -92 -521 0
1000423 -93 -532 0
1000423 -94 -543 0
1000423 -95 -554 0
1000423 -96 -565 0
1000423 -97 -576 0
1000423 -98 -587 0
1000423 -99 -598 0
1000423 -100 -609 0
1000423 -101 -620 0
1000423 -102 -631 0
1000423 -103 -642 0
1000423 -104 -653 0
1000423 -105 -664 0
1000423 -106 -675 0
1000423 -107 -686 0
1000423 -108 -697 0
1000423 -109 -708 0
1000423 -110 -719 0
1000423 -111 -730 0
1000423 -112 -741 0
1000423 -113 -752 0
1000423 -114 -763 0
1000423 -115 -774 0
1000423 -116 -785 0
1000423 -117 -796 0
1000423 -118 -807 0
1000423 -119 -818 0
1000423 -120 -829 0
1000423 -121 -840 0
1000423 -122 -851 0
1000423 -123 -862 0
1000423 -124 -873 0
1000423 -125 -884 0
1000423 -126 -895 0
1000423 -127 -906 0
1000423 -128 -917 0
1000423 -129 -928 0
1000423 -130 -939 0
1000423 -131 -950 0
1000423 -132 -961 0
1000423 1541 1542 1543 1544 1545 1546 1547 1548 1549 1550 1551 1552 1553 1554 1555 1556 1557 1558 1559 1560 1561 1562 1563 1564 1565 1566 1567 1568 1569 1570 1571 1572 1573 1574 1575 1576 1577 1578 1579 1580 1581 1582 1583 1584 0
1000423 -1541 89 0
1000423 -1541 489 0
1000423 1541 -89 -489 0
1000423 -1542 90 0
1000423 -1542 500 0
1000423 1542 -90 -500 0
1000423 -1543 91 0
1000423 -1543 511 0
1000423 1543 -91 -511 0
1000423 -1544 92 0
1000423 -1544 522 0
1000423 1544 -92 -522 0
1000423 -1545 93 0
1000423 -1545 533 0
1000423 1545 -93 -533 0
1000423 -1546 94 0
1000423 -1546 544 0
1000423 1546 -94 -544 0
1000423 -1547 95 0
1000423 -1547 555 0
1000423 1547 -95 -555 0
1000423 -1548 96 0
1000423 -1548 566 0
1000423 1548 -96 -566 0
1000423 -1549 97 0
1000423 -1549 577 0
1000423 1549 -97 -577 0
1000423 -1550 98 0
1000423 -1550 588 0
1000423 1550 -98 -588 0
1000423 -1551 99 0
1000423 -1551 599 0
1000423 1551 -99 -599 0
1000423 -1552 100 0
1000423 -1552 610 0
1000423 1552 -100 -610 0
1000423 -1553 101 0
1000423 -1553 621 0
1000423 1553 -101 -621 0
1000423 -1554 102 0
1000423 -1554 632 0
1000423 1554 -102 -632 0
1000423 -1555 103 0
1000423 -1555 643 0
1000423 1555 -103 -643 0
1000423 -1556 104 0
1000423 -1556 654 0
1000423 1556 -104 -654 0
1000423 -1557 105 0
1000423 -1557 665 0
1000423 1557 -105 -665 0
1000423 -1558 106 0
1000423 -1558 676 0
1000423 1558 -106 -676 0
1000423 -1559 107 0
1000423 -1559 687 0
1000423 1559 -107 -687 0
1000423 -1560 108 0
1000423 -1560 698 0
1000423 1560 -108 -698 0
1000423 -1561 109 0
1000423 -1561 709 0
1000423 1561 -109 -709 0
1000423 -1562 110 0
1000423 -1562 720 0
1000423 1562 -110 -720 0
1000423 -1563 111 0
1000423 -1563 731 0
1000423 1563 -111 -731 0
1000423 -1564 112 0
1000423 -1564 742 0
1000423 1564 -112 -742 0
1000423 -1565 113 0
1000423 -1565 753 0
1000423 1565 -113 -753 0
1000423 -1566 114 0
1000423 -1566 764 0
1000423 1566 -114 -764 0
1000423 -1567 115 0
1000423 -1567 775 0
1000423 1567 -115 -775 0
1000423 -1568 116 0
1000423 -1568 786 0
1000423 1568 -116 -786 0
1000423 -1569 117 0
1000423 -1569 797 0
1000423 1569 -117 -797 0
1000423 -1570 118 0
1000423 -1570 808 0
1000423 1570 -118 -808 0
1000423 -1571 119 0
1000423 -1571 819 0
1000423 1571 -119 -819 0
1000423 -1572 120 0
1000423 -1572 830 0
1000423 1572 -120 -830 0
1000423 -1573 121 0
1000423 -1573 841 0
1000423 1573 -121 -841 0
1000423 -1574 122 0
1000423 -1574 852 0
1000423 1574 -122 -852 0
1000423 -1575 123 0
1000423 -1575 863 0
1000423 1575 -123 -863 0
1000423 -1576 124 0
1000423 -1576 874 0
1000423 1576 -124 -874 0
1000423 -1577 125 0
1000423 -1577 885 0
1000423 1577 -125 -885 0
1000423 -1578 126 0
1000423 -1578 896 0
1000423 1578 -126 -896 0
1000423 -1579 127 0
1000423 -1579 907 0
1000423 1579 -127 -907 0
1000423 -1580 128 0
1000423 -1580 918 0
1000423 1580 -128 -918 0
1000423 -1581 129 0
1000423 -1581 929 0
1000423 1581 -129 -929 0
1000423 -1582 130 0
1000423 -1582 940 0
1000423 1582 -130 -940 0
1000423 -1583 131 0
1000423 -1583 951 0
1000423 1583 -131 -951 0
1000423 -1584 132 0
1000423 -1584 962 0
1000423 1584 -132 -962 0
1000423 -89 -490 0
1000423 -90 -501 0
1000423 -91 -512 0
1000423 -92 -523 0
1000423 -93 -534 0
1000423 -94 -545 0
1000423 -95 -556 0
1000423 -96 -567 0
1000423 -97 -578 0
1000423 -98 -589 0
1000423 -99 -600 0
1000423 -100 -611 0
1000423 -101 -622 0
1000423 -102 -633 0
1000423 -103 -644 0
1000423 -104 -655 0
1000423 -105 -666 0
1000423 -106 -677 0
1000423 -107 -688 0
1000423 -108 -699 0
1000423 -109 -710 0
1000423 -110 -721 0
1000423 -111 -732 0
1000423 -112 -743 0
1000423 -113 -754 0
1000423 -114 -765 0
1000423 -115 -776 0
1000423 -116 -787 0
1000423 -117 -798 0
1000423 -118 -809 0
1000423 -119 -820 0
1000423 -120 -831 0
1000423 -121 -842 0
1000423 -122 -853 0
1000423 -123 -864 0
1000423 -124 -875 0
1000423 -125 -886 0
1000423 -126 -897 0
1000423 -127 -908 0
1000423 -128 -919 0
1000423 -129 -930 0
1000423 -130 -941 0
1000423 -131 -952 0
1000423 -132 -963 0
1000423 -89 -491 0
1000423 -90 -502 0
1000423 -91 -513 0
1000423 -92 -524 0
1000423 -93 -535 0
1000423 -94 -546 0
1000423 -95 -557 0
1000423 -96 -568 0
1000423 -97 -579 0
1000423 -98 -590 0
1000423 -99 -601 0
1000423 -100 -612 0
1000423 -101 -623 0
1000423 -102 -634 0
1000423 -103 -645 0
1000423 -104 -656 0
1000423 -105 -667 0
1000423 -106 -678 0
1000423 -107 -689 0
1000423 -108 -700 0
1000423 -109 -711 0
1000423 -110 -722 0
1000423 -111 -733 0
1000423 -112 -744 0
1000423 -113 -755 0
1000423 -114 -766 0
1000423 -115 -777 0
1000423 -116 -788 0
1000423 -117 -799 0
1000423 -118 -810 0
1000423 -119 -821 0
1000423 -120 -832 0
1000423 -121 -843 0
1000423 -122 -854 0
1000423 -123 -865 0
1000423 -124 -876 0
1000423 -125 -887 0
1000423 -126 -898 0
1000423 -127 -909 0
1000423 -128 -920 0
1000423 -129 -931 0
1000423 -130 -942 0
1000423 -131 -953 0
1000423 -132 -964 0
1000423 -89 -492 0
1000423 -90 -503 0
1000423 -91 -514 0
1000423 -92 -525 0
1000423 -93 -536 0
1000423 -94 -547 0
1000423 -95 -558 0
1000423 -96 -569 0
1000423 -97 -580 0
1000423 -98 -591 0
1000423 -99 -602 0
1000423 -100 -613 0
1000423 -101 -624 0
1000423 -102 -635 0
1000423 -103 -646 0
1000423 -104 -657 0
1000423 -105 -668 0
1000423 -106 -679 0
1000423 -107 -690 0
1000423 -108 -701 0
1000423 -109 -712 0
1000423 -110 -723 0
1000423 -111 -734 0
1000423 -112 -745 0
1000423 -113 -756 0
1000423 -114 -767 0
1000423 -115 -778 0
1000423 -116 -789 0
1000423 -117 -800 0
1000423 -118 -811 0
1000423 -119 -822 0
1000423 -120 -833 0
1000423 -121 -844 0
1000423 -122 -855 0
1000423 -123 -866 0
1000423 -124 -877 0
1000423 -125 -888 0
1000423 -126 -899 0
1000423 -127 -910 0
1000423 -128 -921 0
1000423 -129 -932 0
1000423 -130 -943 0
1000423 -131 -954 0
1000423 -132 -965 0
1000423 -89 -493 0
1000423 -90 -504 0
1000423 -91 -515 0
1000423 -92 -526 0
1000423 -93 -537 0
1000423 -94 -548 0
1000423 -95 -559 0
1000423 -96 -570 0
1000423 -97 -581 0
1000423 -98 -592 0
1000423 -99 -603 0
1000423 -100 -614 0
1000423 -101 -625 0
1000423 -102 -636 0
1000423 -103 -647 0
1000423 -104 -658 0
1000423 -105 -669 0
1000423 -106 -680 0
1000423 -107 -691 0
1000423 -108 -702 0
1000423 -109 -713 0
1000423 -110 -724 0
1000423 -111 -735 0
1000423 -112 -746 0
1000423 -113 -757 0
1000423 -114 -768 0
1000423 -115 -779 0
1000423 -116 -790 0
1000423 -117 -801 0
1000423 -118 -812 0
1000423 -119 -823 0
1000423 -120 -834 0
1000423 -121 -845 0
1000423 -122 -856 0
1000423 -123 -867 0
1000423 -124 -878 0
1000423 -125 -889 0
1000423 -126 -900 0
1000423 -127 -911 0
1000423 -128 -922 0
1000423 -129 -933 0
1000423 -130 -944 0
1000423 -131 -955 0
1000423 -132 -966 0
1000423 -89 -494 0
1000423 -90 -505 0
1000423 -91 -516 0
1000423 -92 -527 0
1000423 -93 -538 0
1000423 -94 -549 0
1000423 -95 -560 0
1000423 -96 -571 0
1000423 -97 -582 0
1000423 -98 -593 0
1000423 -99 -604 0
1000423 -100 -615 0
1000423 -101 -626 0
1000423 -102 -637 0
1000423 -103 -648 0
1000423 -104 -659 0
1000423 -105 -670 0
1000423 -106 -681 0
1000423 -107 -692 0
1000423 -108 -703 0
1000423 -109 -714 0
1000423 -110 -725 0
1000423 -111 -736 0
1000423 -112 -747 0
1000423 -113 -758 0
1000423 -114 -769 0
1000423 -115 -780 0
1000423 -116 -791 0
1000423 -117 -802 0
1000423 -118 -813 0
1000423 -119 -824 0
1000423 -120 -835 0
1000423 -121 -846 0
1000423 -122 -857 0
1000423 -123 -868 0
1000423 -124 -879 0
1000423 -125 -890 0
1000423 -126 -901 0
1000423 -127 -912 0
1000423 -128 -923 0
1000423 -129 -934 0
1000423 -130 -945 0
1000423 -131 -956 0
1000423 -132 -967 0
1000423 -89 -495 0
1000423 -90 -506 0
1000423 -91 -517 0
1000423 -92 -528 0
1000423 -93 -539 0
1000423 -94 -550 0
1000423 -95 -561 0
1000423 -96 -572 0
1000423 -97 -583 0
1000423 -98 -594 0
1000423 -99 -605 0
1000423 -100 -616 0
1000423 -101 -627 0
1000423 -102 -638 0
1000423 -103 -649 0
1000423 -104 -660 0
1000423 -105 -671 0
1000423 -106 -682 0
1000423 -107 -693 0
1000423 -108 -704 0
1000423 -109 -715 0
1000423 -110 -726 0
1000423 -111 -737 0
1000423 -112 -748 0
1000423 -113 -759 0
1000423 -114 -770 0
1000423 -115 -781 0
1000423 -116 -792 0
1000423 -117 -803 0
1000423 -118 -814 0
1000423 -119 -825 0
1000423 -120 -836 0
1000423 -121 -847 0
1000423 -122 -858 0
1000423 -123 -869 0
1000423 -124 -880 0
1000423 -125 -891 0
1000423 -126 -902 0
1000423 -127 -913 0
1000423 -128 -924 0
1000423 -129 -935 0
1000423 -130 -946 0
1000423 -131 -957 0
1000423 -132 -968 0
1000423 1585 1586 1587 1588 1589 1590 1591 1592 1593 1594 1595 1596 1597 1598 1599 1600 1601 1602 1603 1604 1605 1606 1607 1608 1609 1610 1611 1612 1613 1614 1615 1616 1617 1618 1619 1620 1621 1622 1623 1624 1625 1626 1627 1628 0
1000423 -1585 133 0
1000423 -1585 485 0
1000423 1585 -133 -485 0
1000423 -1586 134 0
1000423 -1586 496 0
1000423 1586 -134 -496 0
1000423 -1587 135 0
1000423 -1587 507 0
1000423 1587 -135 -507 0
1000423 -1588 136 0
1000423 -1588 518 0
1000423 1588 -136 -518 0
1000423 -1589 137 0
1000423 -1589 529 0
1000423 1589 -137 -529 0
1000423 -1590 138 0
1000423 -1590 540 0
1000423 1590 -138 -540 0
1000423 -1591 139 0
1000423 -1591 551 0
1000423 1591 -139 -551 0
1000423 -1592 140 0
1000423 -1592 562 0
1000423 1592 -140 -562 0
1000423 -1593 141 0
1000423 -1593 573 0
1000423 1593 -141 -573 0
1000423 -1594 142 0
1000423 -1594 584 0
1000423 1594 -142 -584 0
1000423 -1595 143 0
1000423 -1595 595 0
1000423 1595 -143 -595 0
1000423 -1596 144 0
1000423 -1596 606 0
1000423 1596 -144 -606 0
1000423 -1597 145 0
1000423 -1597 617 0
1000423 1597 -145 -617 0
1000423 -1598 146 0
1000423 -1598 628 0
1000423 1598 -146 -628 0
1000423 -1599 147 0
1000423 -1599 639 0
1000423 1599 -147 -639 0
1000423 -1600 148 0
1000423 -1600 650 0
1000423 1600 -148 -650 0
1000423 -1601 149 0
1000423 -1601 661 0
1000423 1601 -149 -661 0
1000423 -1602 150 0
1000423 -1602 672 0
1000423 1602 -150 -672 0
1000423 -1603 151 0
1000423 -1603 683 0
1000423 1603 -151 -683 0
1000423 -1604 152 0
1000423 -1604 694 0
1000423 1604 -152 -694 0
1000423 -1605 153 0
1000423 -1605 705 0
1000423 1605 -153 -705 0
1000423 -1606 154 0
1000423 -1606 716 0
1000423 1606 -154 -716 0
1000423 -1607 155 0
1000423 -1607 727 0
1000423 1607 -155 -727 0
1000423 -1608 156 0
1000423 -1608 738 0
1000423 1608 -156 -738 0
1000423 -1609 157 0
1000423 -1609 749 0
1000423 1609 -157 -749 0
1000423 -1610 158 0
1000423 -1610 760 0
1000423 1610 -158 -760 0
1000423 -1611 159 0
1000423 -1611 771 0
1000423 1611 -159 -771 0
1000423 -1612 160 0
1000423 -1612 782 0
1000423 1612 -160 -782 0
1000423 -1613 161 0
1000423 -1613 793 0
1000423 1613 -161 -793 0
1000423 -1614 162 0
1000423 -1614 804 0
1000423 1614 -162 -804 0
1000423 -1615 163 0
1000423 -1615 815 0
1000423 1615 -163 -815 0
1000423 -1616 164 0
1000423 -1616 826 0
1000423 1616 -164 -826 0
1000423 -1617 165 0
1000423 -1617 837 0
1000423 1617 -165 -837 0
1000423 -1618 166 0
1000423 -1618 848 0
1000423 1618 -166 -848 0
1000423 -1619 167 0
1000423 -1619 859 0
1000423 1619 -167 -859 0
1000423 -1620 168 0
1000423 -1620 870 0
1000423 1620 -168 -870 0
1000423 -1621 169 0
1000423 -1621 881 0
1000423 1621 -169 -881 0
1000423 -1622 170 0
1000423 -1622 892 0
1000423 1622 -170 -892 0
1000423 -1623 171 0
1000423 -1623 903 0
1000423 1623 -171 -903 0
1000423 -1624 172 0
1000423 -1624 914 0
1000423 1624 -172 -914 0
1000423 -1625 173 0
1000423 -1625 925 0
1000423 1625 -173 -925 0
1000423 -1626 174 0
1000423 -1626 936 0
1000423 1626 -174 -936 0
1000423 -1627 175 0
1000423 -1627 947 0
1000423 1627 -175 -947 0
1000423 -1628 176 0
1000423 -1628 958 0
1000423 1628 -176 -958 0
1000423 1629 1630 1631 1632 1633 1634 1635 1636 1637 1638 1639 1640 1641 1642 1643 1644 1645 1646 1647 1648 1649 1650 1651 1652 1653 1654 1655 1656 1657 1658 1659 1660 1661 1662 1663 1664 1665 1666 1667 1668 1669 1670 1671 1672 0
1000423 -1629 133 0
1000423 -1629 486 0
1000423 1629 -133 -486 0
1000423 -1630 134 0
1000423 -1630 497 0
1000423 1630 -134 -497 0
1000423 -1631 135 0
1000423 -1631 508 0
1000423 1631 -135 -508 0
1000423 -1632 136 0
1000423 -1632 519 0
1000423 1632 -136 -519 0
1000423 -1633 137 0
1000423 -1633 530 0
1000423 1633 -137 -530 0
1000423 -1634 138 0
1000423 -1634 541 0
1000423 1634 -138 -541 0
1000423 -1635 139 0
1000423 -1635 552 0
1000423 1635 -139 -552 0
1000423 -1636 140 0
1000423 -1636 563 0
1000423 1636 -140 -563 0
1000423 -1637 141 0
1000423 -1637 574 0
1000423 1637 -141 -574 0
1000423 -1638 142 0
1000423 -1638 585 0
1000423 1638 -142 -585 0
1000423 -1639 143 0
1000423 -1639 596 0
1000423 1639 -143 -596 0
1000423 -1640 144 0
1000423 -1640 607 0
1000423 1640 -144 -607 0
1000423 -1641 145 0
1000423 -1641 618 0
1000423 1641 -145 -618 0
1000423 -1642 146 0
1000423 -1642 629 0
1000423 1642 -146 -629 0
1000423 -1643 147 0
1000423 -1643 640 0
1000423 1643 -147 -640 0
1000423 -1644 148 0
1000423 -1644 651 0
1000423 1644 -148 -651 0
1000423 -1645 149 0
1000423 -1645 662 0
1000423 1645 -149 -662 0
1000423 -1646 150 0
1000423 -1646 673 0
1000423 1646 -150 -673 0
1000423 -1647 151 0
1000423 -1647 684 0
1000423 1647 -151 -684 0
1000423 -1648 152 0
1000423 -1648 695 0
1000423 1648 -152 -695 0
1000423 -1649 153 0
1000423 -1649 706 0
1000423 1649 -153 -706 0
1000423 -1650 154 0
1000423 -1650 717 0
1000423 1650 -154 -717 0
1000423 -1651 155 0
1000423 -1651 728 0
1000423 1651 -155 -728 0
1000423 -1652 156 0
1000423 -1652 739 0
1000423 1652 -156 -739 0
1000423 -1653 157 0
1000423 -1653 750 0
1000423 1653 -157 -750 0
1000423 -1654 158 0
1000423 -1654 761 0
1000423 1654 -158 -761 0
1000423 -1655 159 0
1000423 -1655 772 0
1000423 1655 -159 -772 0
1000423 -1656 160 0
1000423 -1656 783 0
1000423 1656 -160 -783 0
1000423 -1657 161 0
1000423 -1657 794 0
1000423 1657 -161 -794 0
1000423 -1658 162 0
1000423 -1658 805 0
1000423 1658 -162 -805 0
1000423 -1659 163 0
1000423 -1659 816 0
1000423 1659 -163 -816 0
1000423 -1660 164 0
1000423 -1660 827 0
1000423 1660 -164 -827 0
1000423 -1661 165 0
1000423 -1661 838 0
1000423 1661 -165 -838 0
1000423 -1662 166 0
1000423 -1662 849 0
1000423 1662 -166 -849 0
1000423 -1663 167 0
1000423 -1663 860 0
1000423 1663 -167 -860 0
1000423 -1664 168 0
1000423 -1664 871 0
1000423 1664 -168 -871 0
1000423 -1665 169 0
1000423 -1665 882 0
1000423 1665 -169 -882 0
1000423 -1666 170 0
1000423 -1666 893 0
1000423 1666 -170 -893 0
1000423 -1667 171 0
1000423 -1667 904 0
1000423 1667 -171 -904 0
1000423 -1668 172 0
1000423 -1668 915 0
1000423 1668 -172 -915 0
1000423 -1669 173 0
1000423 -1669 926 0
1000423 1669 -173 -926 0
1000423 -1670 174 0
1000423 -1670 937 0
1000423 1670 -174 -937 0
1000423 -1671 175 0
1000423 -1671 948 0
1000423 1671 -175 -948 0
1000423 -1672 176 0
1000423 -1672 959 0
1000423 1672 -176 -959 0
1000423 1673 1674 1675 1676 1677 1678 1679 1680 1681 1682 1683 1684 1685 1686 1687 1688 1689 1690 1691 1692 1693 1694 1695 1696 1697 1698 1699 1700 1701 1702 1703 1704 1705 1706 1707 1708 1709 1710 1711 1712 1713 1714 1715 1716 0
1000423 -1673 133 0
1000423 -1673 487 0
1000423 1673 -133 -487 0
1000423 -1674 134 0
1000423 -1674 498 0
1000423 1674 -134 -498 0
1000423 -1675 135 0
1000423 -1675 509 0
1000423 1675 -135 -509 0
1000423 -1676 136 0
1000423 -1676 520 0
1000423 1676 -136 -520 0
1000423 -1677 137 0
1000423 -1677 531 0
1000423 1677 -137 -531 0
1000423 -1678 138 0
1000423 -1678 542 0
1000423 1678 -138 -542 0
1000423 -1679 139 0
1000423 -1679 553 0
1000423 1679 -139 -553 0
1000423 -1680 140 0
1000423 -1680 564 0
1000423 1680 -140 -564 0
1000423 -1681 141 0
1000423 -1681 575 0
1000423 1681 -141 -575 0
1000423 -1682 142 0
1000423 -1682 586 0
1000423 1682 -142 -586 0
1000423 -1683 143 0
1000423 -1683 597 0
1000423 1683 -143 -597 0
1000423 -1684 144 0
1000423 -1684 608 0
1000423 1684 -144 -608 0
1000423 -1685 145 0
1000423 -1685 619 0
1000423 1685 -145 -619 0
1000423 -1686 146 0
1000423 -1686 630 0
1000423 1686 -146 -630 0
1000423 -1687 147 0
1000423 -1687 641 0
1000423 1687 -147 -641 0
1000423 -1688 148 0
1000423 -1688 652 0
1000423 1688 -148 -652 0
1000423 -1689 149 0
1000423 -1689 663 0
1000423 1689 -149 -663 0
1000423 -1690 150 0
1000423 -1690 674 0
1000423 1690 -150 -674 0
1000423 -1691 151 0
1000423 -1691 685 0
1000423 1691 -151 -685 0
1000423 -1692 152 0
1000423 -1692 696 0
1000423 1692 -152 -696 0
1000423 -1693 153 0
1000423 -1693 707 0
1000423 1693 -153 -707 0
1000423 -1694 154 0
1000423 -1694 718 0
1000423 1694 -154 -718 0
1000423 -1695 155 0
1000423 -1695 729 0
1000423 1695 -155 -729 0
1000423 -1696 156 0
1000423 -1696 740 0
1000423 1696 -156 -740 0
1000423 -1697 157 0
1000423 -1697 751 0
1000423 1697 -157 -751 0
1000423 -1698 158 0
1000423 -1698 762 0
1000423 1698 -158 -762 0
1000423 -1699 159 0
1000423 -1699 773 0
1000423 1699 -159 -773 0
1000423 -1700 160 0
1000423 -1700 784 0
1000423 1700 -160 -784 0
1000423 -1701 161 0
1000423 -1701 795 0
1000423 1701 -161 -795 0
1000423 -1702 162 0
1000423 -1702 806 0
1000423 1702 -162 -806 0
1000423 -1703 163 0
1000423 -1703 817 0
1000423 1703 -163 -817 0
1000423 -1704 164 0
1000423 -1704 828 0
1000423 1704 -164 -828 0
1000423 -1705 165 0
1000423 -1705 839 0
1000423 1705 -165 -839 0
1000423 -1706 166 0
1000423 -1706 850 0
1000423 1706 -166 -850 0
1000423 -1707 167 0
1000423 -1707 861 0
1000423 1707 -167 -861 0
1000423 -1708 168 0
1000423 -1708 872 0
1000423 1708 -168 -872 0
1000423 -1709 169 0
1000423 -1709 883 0
1000423 1709 -169 -883 0
1000423 -1710 170 0
1000423 -1710 894 0
1000423 1710 -170 -894 0
1000423 -1711 171 0
1000423 -1711 905 0
1000423 1711 -171 -905 0
1000423 -1712 172 0
1000423 -1712 916 0
1000423 1712 -172 -916 0
1000423 -1713 173 0
1000423 -1713 927 0
1000423 1713 -173 -927 0
1000423 -1714 174 0
1000423 -1714 938 0
1000423 1714 -174 -938 0
1000423 -1715 175 0
1000423 -1715 949 0
1000423 1715 -175 -949 0
1000423 -1716 176 0
1000423 -1716 960 0
1000423 1716 -176 -960 0
1000423 -133 -488 0
1000423 -134 -499 0
1000423 -135 -510 0
1000423 -136 -521 0
1000423 -137 -532 0
1000423 -138 -543 0
1000423 -139 -554 0
1000423 -140 -565 0
1000423 -141 -576 0
1000423 -142 -587 0
1000423 -143 -598 0
1000423 -144 -609 0
1000423 -145 -620 0
1000423 -146 -631 0
1000423 -147 -642 0
1000423 -148 -653 0
1000423 -149 -664 0
1000423 -150 -675 0
1000423 -151 -686 0
1000423 -152 -697 0
1000423 -153 -708 0
1000423 -154 -719 0
1000423 -155 -730 0
1000423 -156 -741 0
1000423 -157 -752 0
1000423 -158 -763 0
1000423 -159 -774 0
1000423 -160 -785 0
1000423 -161 -796 0
1000423 -162 -807 0
1000423 -163 -818 0
1000423 -164 -829 0
1000423 -165 -840 0
1000423 -166 -851 0
1000423 -167 -862 0
1000423 -168 -873 0
1000423 -169 -884 0
1000423 -170 -895 0
1000423 -171 -906 0
1000423 -172 -917 0
1000423 -173 -928 0
1000423 -174 -939 0
1000423 -175 -950 0
1000423 -176 -961 0
1000423 -133 -489 0
1000423 -134 -500 0
1000423 -135 -511 0
1000423 -136 -522 0
1000423 -137 -533 0
1000423 -138 -544 0
1000423 -139 -555 0
1000423 -140 -566 0
1000423 -141 -577 0
1000423 -142 -588 0
1000423 -143 -599 0
1000423 -144 -610 0
1000423 -145 -621 0
1000423 -146 -632 0
1000423 -147 -643 0
1000423 -148 -654 0
1000423 -149 -665 0
1000423 -150 -676 0
1000423 -151 -687 0
1000423 -152 -698 0
1000423 -153 -709 0
1000423 -154 -720 0
1000423 -155 -731 0
1000423 -156 -742 0
1000423 -157 -753 0
1000423 -158 -764 0
1000423 -159 -775 0
1000423 -160 -786 0
1000423 -161 -797 0
1000423 -162 -808 0
1000423 -163 -819 0
1000423 -164 -830 0
1000423 -165 -841 0
1000423 -166 -852 0
1000423 -167 -863 0
1000423 -168 -874 0
1000423 -169 -885 0
1000423 -170 -896 0
1000423 -171 -907 0
1000423 -172 -918 0
1000423 -173 -929 0
1000423 -174 -940 0
1000423 -175 -951 0
1000423 -176 -962 0
1000423 1717 1718 1719 1720 1721 1722 1723 1724 1725 1726 1727 1728 1729 1730 1731 1732 1733 1734 1735 1736 1737 1738 1739 1740 1741 1742 1743 1744 1745 1746 1747 1748 1749 1750 1751 1752 1753 1754 1755 1756 1757 1758 1759 1760 0
1000423 -1717 133 0
1000423 -1717 490 0
1000423 1717 -133 -490 0
1000423 -1718 134 0
1000423 -1718 501 0
1000423 1718 -134 -501 0
1000423 -1719 135 0
1000423 -1719 512 0
1000423 1719 -135 -512 0
1000423 -1720 136 0
1000423 -1720 523 0
1000423 1720 -136 -523 0
1000423 -1721 137 0
1000423 -1721 534 0
1000423 1721 -137 -534 0
1000423 -1722 138 0
1000423 -1722 545 0
1000423 1722 -138 -545 0
1000423 -1723 139 0
1000423 -1723 556 0
1000423 1723 -139 -556 0
1000423 -1724 140 0
1000423 -1724 567 0
1000423 1724 -140 -567 0
1000423 -1725 141 0
1000423 -1725 578 0
1000423 1725 -141 -578 0
1000423 -1726 142 0
1000423 -1726 589 0
1000423 1726 -142 -589 0
1000423 -1727 143 0
1000423 -1727 600 0
1000423 1727 -143 -600 0
1000423 -1728 144 0
1000423 -1728 611 0
1000423 1728 -144 -611 0
1000423 -1729 145 0
1000423 -1729 622 0
1000423 1729 -145 -622 0
1000423 -1730 146 0
1000423 -1730 633 0
1000423 1730 -146 -633 0
1000423 -1731 147 0
1000423 -1731 644 0
1000423 1731 -147 -644 0
1000423 -1732 148 0
1000423 -1732 655 0
1000423 1732 -148 -655 0
1000423 -1733 149 0
1000423 -1733 666 0
1000423 1733 -149 -666 0
1000423 -1734 150 0
1000423 -1734 677 0
1000423 1734 -150 -677 0
1000423 -1735 151 0
1000423 -1735 688 0
1000423 1735 -151 -688 0
1000423 -1736 152 0
1000423 -1736 699 0
1000423 1736 -152 -699 0
1000423 -1737 153 0
1000423 -1737 710 0
1000423 1737 -153 -710 0
1000423 -1738 154 0
1000423 -1738 721 0
1000423 1738 -154 -721 0
1000423 -1739 155 0
1000423 -1739 732 0
1000423 1739 -155 -732 0
1000423 -1740 156 0
1000423 -1740 743 0
1000423 1740 -156 -743 0
1000423 -1741 157 0
1000423 -1741 754 0
1000423 1741 -157 -754 0
1000423 -1742 158 0
1000423 -1742 765 0
1000423 1742 -158 -765 0
1000423 -1743 159 0
1000423 -1743 776 0
1000423 1743 -159 -776 0
1000423 -1744 160 0
1000423 -1744 787 0
1000423 1744 -160 -787 0
1000423 -1745 161 0
1000423 -1745 798 0
1000423 1745 -161 -798 0
1000423 -1746 162 0
1000423 -1746 809 0
1000423 1746 -162 -809 0
1000423 -1747 163 0
1000423 -1747 820 0
1000423 1747 -163 -820 0
1000423 -1748 164 0
1000423 -1748 831 0
1000423 1748 -164 -831 0
1000423 -1749 165 0
1000423 -1749 842 0
1000423 1749 -165 -842 0
1000423 -1750 166 0
1000423 -1750 853 0
1000423 1750 -166 -853 0
1000423 -1751 167 0
1000423 -1751 864 0
1000423 1751 -167 -864 0
1000423 -1752 168 0
1000423 -1752 875 0
1000423 1752 -168 -875 0
1000423 -1753 169 0
1000423 -1753 886 0
1000423 1753 -169 -886 0
1000423 -1754 170 0
1000423 -1754 897 0
1000423 1754 -170 -897 0
1000423 -1755 171 0
1000423 -1755 908 0
1000423 1755 -171 -908 0
1000423 -1756 172 0
1000423 -1756 919 0
1000423 1756 -172 -919 0
1000423 -1757 173 0
1000423 -1757 930 0
1000423 1757 -173 -930 0
1000423 -1758 174 0
1000423 -1758 941 0
1000423 1758 -174 -941 0
1000423 -1759 175 0
1000423 -1759 952 0
1000423 1759 -175 -952 0
1000423 -1760 176 0
1000423 -1760 963 0
1000423 1760 -176 -963 0
1000423 -133 -491 0
1000423 -134 -502 0
1000423 -135 -513 0
1000423 -136 -524 0
1000423 -137 -535 0
1000423 -138 -546 0
1000423 -139 -557 0
1000423 -140 -568 0
1000423 -141 -579 0
1000423 -142 -590 0
1000423 -143 -601 0
1000423 -144 -612 0
1000423 -145 -623 0
1000423 -146 -634 0
1000423 -147 -645 0
1000423 -148 -656 0
1000423 -149 -667 0
1000423 -150 -678 0
1000423 -151 -689 0
1000423 -152 -700 0
1000423 -153 -711 0
1000423 -154 -722 0
1000423 -155 -733 0
1000423 -156 -744 0
1000423 -157 -755 0
1000423 -158 -766 0
1000423 -159 -777 0
1000423 -160 -788 0
1000423 -161 -799 0
1000423 -162 -810 0
1000423 -163 -821 0
1000423 -164 -832 0
1000423 -165 -843 0
1000423 -166 -854 0
1000423 -167 -865 0
1000423 -168 -876 0
1000423 -169 -887 0
1000423 -170 -898 0
1000423 -171 -909 0
1000423 -172 -920 0
1000423 -173 -931 0
1000423 -174 -942 0
1000423 -175 -953 0
1000423 -176 -964 0
1000423 -133 -492 0
1000423 -134 -503 0
1000423 -135 -514 0
1000423 -136 -525 0
1000423 -137 -536 0
1000423 -138 -547 0
1000423 -139 -558 0
1000423 -140 -569 0
1000423 -141 -580 0
1000423 -142 -591 0
1000423 -143 -602 0
1000423 -144 -613 0
1000423 -145 -624 0
1000423 -146 -635 0
1000423 -147 -646 0
1000423 -148 -657 0
1000423 -149 -668 0
1000423 -150 -679 0
1000423 -151 -690 0
1000423 -152 -701 0
1000423 -153 -712 0
1000423 -154 -723 0
1000423 -155 -734 0
1000423 -156 -745 0
1000423 -157 -756 0
1000423 -158 -767 0
1000423 -159 -778 0
1000423 -160 -789 0
1000423 -161 -800 0
1000423 -162 -811 0
1000423 -163 -822 0
1000423 -164 -833 0
1000423 -165 -844 0
1000423 -166 -855 0
1000423 -167 -866 0
1000423 -168 -877 0
1000423 -169 -888 0
1000423 -170 -899 0
1000423 -171 -910 0
1000423 -172 -921 0
1000423 -173 -932 0
1000423 -174 -943 0
1000423 -175 -954 0
1000423 -176 -965 0
1000423 -133 -493 0
1000423 -134 -504 0
1000423 -135 -515 0
1000423 -136 -526 0
1000423 -137 -537 0
1000423 -138 -548 0
1000423 -139 -559 0
1000423 -140 -570 0
1000423 -141 -581 0
1000423 -142 -592 0
1000423 -143 -603 0
1000423 -144 -614 0
1000423 -145 -625 0
1000423 -146 -636 0
1000423 -147 -647 0
1000423 -148 -658 0
1000423 -149 -669 0
1000423 -150 -680 0
1000423 -151 -691 0
1000423 -152 -702 0
1000423 -153 -713 0
1000423 -154 -724 0
1000423 -155 -735 0
1000423 -156 -746 0
1000423 -157 -757 0
1000423 -158 -768 0
1000423 -159 -779 0
1000423 -160 -790 0
1000423 -161 -801 0
1000423 -162 -812 0
1000423 -163 -823 0
1000423 -164 -834 0
1000423 -165 -845 0
1000423 -166 -856 0
1000423 -167 -867 0
1000423 -168 -878 0
1000423 -169 -889 0
1000423 -170 -900 0
1000423 -171 -911 0
1000423 -172 -922 0
1000423 -173 -933 0
1000423 -174 -944 0
1000423 -175 -955 0
1000423 -176 -966 0
1000423 -133 -494 0
1000423 -134 -505 0
1000423 -135 -516 0
1000423 -136 -527 0
1000423 -137 -538 0
1000423 -138 -549 0
1000423 -139 -560 0
1000423 -140 -571 0
1000423 -141 -582 0
1000423 -142 -593 0
1000423 -143 -604 0
1000423 -144 -615 0
1000423 -145 -626 0
1000423 -146 -637 0
1000423 -147 -648 0
1000423 -148 -659 0
1000423 -149 -670 0
1000423 -150 -681 0
1000423 -151 -692 0
1000423 -152 -703 0
1000423 -153 -714 0
1000423 -154 -725 0
1000423 -155 -736 0
1000423 -156 -747 0
1000423 -157 -758 0
1000423 -158 -769 0
1000423 -159 -780 0
1000423 -160 -791 0
1000423 -161 -802 0
1000423 -162 -813 0
1000423 -163 -824 0
1000423 -164 -835 0
1000423 -165 -846 0
1000423 -166 -857 0
1000423 -167 -868 0
1000423 -168 -879 0
1000423 -169 -890 0
1000423 -170 -901 0
1000423 -171 -912 0
1000423 -172 -923 0
1000423 -173 -934 0
1000423 -174 -945 0
1000423 -175 -956 0
1000423 -176 -967 0
1000423 -133 -495 0
1000423 -134 -506 0
1000423 -135 -517 0
1000423 -136 -528 0
1000423 -137 -539 0
1000423 -138 -550 0
1000423 -139 -561 0
1000423 -140 -572 0
1000423 -141 -583 0
1000423 -142 -594 0
1000423 -143 -605 0
1000423 -144 -616 0
1000423 -145 -627 0
1000423 -146 -638 0
1000423 -147 -649 0
1000423 -148 -660 0
1000423 -149 -671 0
1000423 -150 -682 0
1000423 -151 -693 0
1000423 -152 -704 0
1000423 -153 -715 0
1000423 -154 -726 0
1000423 -155 -737 0
1000423 -156 -748 0
1000423 -157 -759 0
1000423 -158 -770 0
1000423 -159 -781 0
1000423 -160 -792 0
1000423 -161 -803 0
1000423 -162 -814 0
1000423 -163 -825 0
1000423 -164 -836 0
1000423 -165 -847 0
1000423 -166 -858 0
1000423 -167 -869 0
1000423 -168 -880 0
1000423 -169 -891 0
1000423 -170 -902 0
1000423 -171 -913 0
1000423 -172 -924 0
1000423 -173 -935 0
1000423 -174 -946 0
1000423 -175 -957 0
1000423 -176 -968 0
1000423 1761 1762 1763 1764 1765 1766 1767 1768 1769 1770 1771 1772 1773 1774 1775 1776 1777 1778 1779 1780 1781 1782 1783 1784 1785 1786 1787 1788 1789 1790 1791 1792 1793 1794 1795 1796 1797 1798 1799 1800 1801 1802 1803 1804 0
1000423 -1761 177 0
1000423 -1761 485 0
1000423 1761 -177 -485 0
1000423 -1762 178 0
1000423 -1762 496 0
1000423 1762 -178 -496 0
1000423 -1763 179 0
1000423 -1763 507 0
1000423 1763 -179 -507 0
1000423 -1764 180 0
1000423 -1764 518 0
1000423 1764 -180 -518 0
1000423 -1765 181 0
1000423 -1765 529 0
1000423 1765 -181 -529 0
1000423 -1766 182 0
1000423 -1766 540 0
1000423 1766 -182 -540 0
1000423 -1767 183 0
1000423 -1767 551 0
1000423 1767 -183 -551 0
1000423 -1768 184 0
1000423 -1768 562 0
1000423 1768 -184 -562 0
1000423 -1769 185 0
1000423 -1769 573 0
1000423 1769 -185 -573 0
1000423 -1770 186 0
1000423 -1770 584 0
1000423 1770 -186 -584 0
1000423 -1771 187 0
1000423 -1771 595 0
1000423 1771 -187 -595 0
1000423 -1772 188 0
1000423 -1772 606 0
1000423 1772 -188 -606 0
1000423 -1773 189 0
1000423 -1773 617 0
1000423 1773 -189 -617 0
1000423 -1774 190 0
1000423 -1774 628 0
1000423 1774 -190 -628 0
1000423 -1775 191 0
1000423 -1775 639 0
1000423 1775 -191 -639 0
1000423 -1776 192 0
1000423 -1776 650 0
1000423 1776 -192 -650 0
1000423 -1777 193 0
1000423 -1777 661 0
1000423 1777 -193 -661 0
1000423 -1778 194 0
1000423 -1778 672 0
1000423 1778 -194 -672 0
1000423 -1779 195 0
1000423 -1779 683 0
1000423 1779 -195 -683 0
1000423 -1780 196 0
1000423 -1780 694 0
1000423 1780 -196 -694 0
1000423 -1781 197 0
1000423 -1781 705 0
1000423 1781 -197 -705 0
1000423 -1782 198 0
1000423 -1782 716 0
1000423 1782 -198 -716 0
1000423 -1783 199 0
1000423 -1783 727 0
1000423 1783 -199 -727 0
1000423 -1784 200 0
1000423 -1784 738 0
1000423 1784 -200 -738 0
1000423 -1785 201 0
1000423 -1785 749 0
1000423 1785 -201 -749 0
1000423 -1786 202 0
1000423 -1786 760 0
1000423 1786 -202 -760 0
1000423 -1787 203 0
1000423 -1787 771 0
1000423 1787 -203 -771 0
1000423 -1788 204 0
1000423 -1788 782 0
1000423 1788 -204 -782 0
1000423 -1789 205 0
1000423 -1789 793 0
1000423 1789 -205 -793 0
1000423 -1790 206 0
1000423 -1790 804 0
1000423 1790 -206 -804 0
1000423 -1791 207 0
1000423 -1791 815 0
1000423 1791 -207 -815 0
1000423 -1792 208 0
1000423 -1792 826 0
1000423 1792 -208 -826 0
1000423 -1793 209 0
1000423 -1793 837 0
1000423 1793 -209 -837 0
1000423 -1794 210 0
1000423 -1794 848 0
1000423 1794 -210 -848 0
1000423 -1795 211 0
1000423 -1795 859 0
1000423 1795 -211 -859 0
1000423 -1796 212 0
1000423 -1796 870 0
1000423 1796 -212 -870 0
1000423 -1797 213 0
1000423 -1797 881 0
1000423 1797 -213 -881 0
1000423 -1798 214 0
1000423 -1798 892 0
1000423 1798 -214 -892 0
1000423 -1799 215 0
1000423 -1799 903 0
1000423 1799 -215 -903 0
1000423 -1800 216 0
1000423 -1800 914 0
1000423 1800 -216 -914 0
1000423 -1801 217 0
1000423 -1801 925 0
1000423 1801 -217 -925 0
1000423 -1802 218 0
1000423 -1802 936 0
1000423 1802 -218 -936 0
1000423 -1803 219 0
1000423 -1803 947 0
1000423 1803 -219 -947 0
1000423 -1804 220 0
1000423 -1804 958 0
1000423 1804 -220 -958 0
1000423 1805 1806 1807 1808 1809 1810 1811 1812 1813 1814 1815 1816 1817 1818 1819 1820 1821 1822 1823 1824 1825 1826 1827 1828 1829 1830 1831 1832 1833 1834 1835 1836 1837 1838 1839 1840 1841 1842 1843 1844 1845 1846 1847 1848 0
1000423 -1805 177 0
1000423 -1805 486 0
1000423 1805 -177 -486 0
1000423 -1806 178 0
1000423 -1806 497 0
1000423 1806 -178 -497 0
1000423 -1807 179 0
1000423 -1807 508 0
1000423 1807 -179 -508 0
1000423 -1808 180 0
1000423 -1808 519 0
1000423 1808 -180 -519 0
1000423 -1809 181 0
1000423 -1809 530 0
1000423 1809 -181 -530 0
1000423 -1810 182 0
1000423 -1810 541 0
1000423 1810 -182 -541 0
1000423 -1811 183 0
1000423 -1811 552 0
1000423 1811 -183 -552 0
1000423 -1812 184 0
1000423 -1812 563 0
1000423 1812 -184 -563 0
1000423 -1813 185 0
1000423 -1813 574 0
1000423 1813 -185 -574 0
1000423 -1814 186 0
1000423 -1814 585 0
1000423 1814 -186 -585 0
1000423 -1815 187 0
1000423 -1815 596 0
1000423 1815 -187 -596 0
1000423 -1816 188 0
1000423 -1816 607 0
1000423 1816 -188 -607 0
1000423 -1817 189 0
1000423 -1817 618 0
1000423 1817 -189 -618 0
1000423 -1818 190 0
1000423 -1818 629 0
1000423 1818 -190 -629 0
1000423 -1819 191 0
1000423 -1819 640 0
1000423 1819 -191 -640 0
1000423 -1820 192 0
1000423 -1820 651 0
1000423 1820 -192 -651 0
1000423 -1821 193 0
1000423 -1821 662 0
1000423 1821 -193 -662 0
1000423 -1822 194 0
1000423 -1822 673 0
1000423 1822 -194 -673 0
1000423 -1823 195 0
1000423 -1823 684 0
1000423 1823 -195 -684 0
1000423 -1824 196 0
1000423 -1824 695 0
1000423 1824 -196 -695 0
1000423 -1825 197 0
1000423 -1825 706 0
1000423 1825 -197 -706 0
1000423 -1826 198 0
1000423 -1826 717 0
1000423 1826 -198 -717 0
1000423 -1827 199 0
1000423 -1827 728 0
1000423 1827 -199 -728 0
1000423 -1828 200 0
1000423 -1828 739 0
1000423 1828 -200 -739 0
1000423 -1829 201 0
1000423 -1829 750 0
1000423 1829 -201 -750 0
1000423 -1830 202 0
1000423 -1830 761 0
1000423 1830 -202 -761 0
1000423 -1831 203 0
1000423 -1831 772 0
1000423 1831 -203 -772 0
1000423 -1832 204 0
1000423 -1832 783 0
1000423 1832 -204 -783 0
1000423 -1833 205 0
1000423 -1833 794 0
1000423 1833 -205 -794 0
1000423 -1834 206 0
1000423 -1834 805 0
1000423 1834 -206 -805 0
1000423 -1835 207 0
1000423 -1835 816 0
1000423 1835 -207 -816 0
1000423 -1836 208 0
1000423 -1836 827 0
1000423 1836 -208 -827 0
1000423 -1837 209 0
1000423 -1837 838 0
1000423 1837 -209 -838 0
1000423 -1838 210 0
1000423 -1838 849 0
1000423 1838 -210 -849 0
1000423 -1839 211 0
1000423 -1839 860 0
1000423 1839 -211 -860 0
1000423 -1840 212 0
1000423 -1840 871 0
1000423 1840 -212 -871 0
1000423 -1841 213 0
1000423 -1841 882 0
1000423 1841 -213 -882 0
1000423 -1842 214 0
1000423 -1842 893 0
1000423 1842 -214 -893 0
1000423 -1843 215 0
1000423 -1843 904 0
1000423 1843 -215 -904 0
1000423 -1844 216 0
1000423 -1844 915 0
1000423 1844 -216 -915 0
1000423 -1845 217 0
1000423 -1845 926 0
1000423 1845 -217 -926 0
1000423 -1846 218 0
1000423 -1846 937 0
1000423 1846 -218 -937 0
1000423 -1847 219 0
1000423 -1847 948 0
1000423 1847 -219 -948 0
1000423 -1848 220 0
1000423 -1848 959 0
1000423 1848 -220 -959 0
1000423 1849 1850 1851 1852 1853 1854 1855 1856 1857 1858 1859 1860 1861 1862 1863 1864 1865 1866 1867 1868 1869 1870 1871 1872 1873 1874 1875 1876 1877 1878 1879 1880 1881 1882 1883 1884 1885 1886 1887 1888 1889 1890 1891 1892 0
1000423 -1849 177 0
1000423 -1849 487 0
1000423 1849 -177 -487 0
1000423 -1850 178 0
1000423 -1850 498 0
1000423 1850 -178 -498 0
1000423 -1851 179 0
1000423 -1851 509 0
1000423 1851 -179 -509 0
1000423 -1852 180 0
1000423 -1852 520 0
1000423 1852 -180 -520 0
1000423 -1853 181 0
1000423 -1853 531 0
1000423 1853 -181 -531 0
1000423 -1854 182 0
1000423 -1854 542 0
1000423 1854 -182 -542 0
1000423 -1855 183 0
1000423 -1855 553 0
1000423 1855 -183 -553 0
1000423 -1856 184 0
1000423 -1856 564 0
1000423 1856 -184 -564 0
1000423 -1857 185 0
1000423 -1857 575 0
1000423 1857 -185 -575 0
1000423 -1858 186 0
1000423 -1858 586 0
1000423 1858 -186 -586 0
1000423 -1859 187 0
1000423 -1859 597 0
1000423 1859 -187 -597 0
1000423 -1860 188 0
1000423 -1860 608 0
1000423 1860 -188 -608 0
1000423 -1861 189 0
1000423 -1861 619 0
1000423 1861 -189 -619 0
1000423 -1862 190 0
1000423 -1862 630 0
1000423 1862 -190 -630 0
1000423 -1863 191 0
1000423 -1863 641 0
1000423 1863 -191 -641 0
1000423 -1864 192 0
1000423 -1864 652 0
1000423 1864 -192 -652 0
1000423 -1865 193 0
1000423 -1865 663 0
1000423 1865 -193 -663 0
1000423 -1866 194 0
1000423 -1866 674 0
1000423 1866 -194 -674 0
1000423 -1867 195 0
1000423 -1867 685 0
1000423 1867 -195 -685 0
1000423 -1868 196 0
1000423 -1868 696 0
1000423 1868 -196 -696 0
1000423 -1869 197 0
1000423 -1869 707 0
1000423 1869 -197 -707 0
1000423 -1870 198 0
1000423 -1870 718 0
1000423 1870 -198 -718 0
1000423 -1871 199 0
1000423 -1871 729 0
1000423 1871 -199 -729 0
1000423 -1872 200 0
1000423 -1872 740 0
1000423 1872 -200 -740 0
1000423 -1873 201 0
1000423 -1873 751 0
1000423 1873 -201 -751 0
1000423 -1874 202 0
1000423 -1874 762 0
1000423 1874 -202 -762 0
1000423 -1875 203 0
1000423 -1875 773 0
1000423 1875 -203 -773 0
1000423 -1876 204 0
1000423 -1876 784 0
1000423 1876 -204 -784 0
1000423 -1877 205 0
1000423 -1877 795 0
1000423 1877 -205 -795 0
1000423 -1878 206 0
1000423 -1878 806 0
1000423 1878 -206 -806 0
1000423 -1879 207 0
1000423 -1879 817 0
1000423 1879 -207 -817 0
1000423 -1880 208 0
1000423 -1880 828 0
1000423 1880 -208 -828 0
1000423 -1881 209 0
1000423 -1881 839 0
1000423 1881 -209 -839 0
1000423 -1882 210 0
1000423 -1882 850 0
1000423 1882 -210 -850 0
1000423 -1883 211 0
1000423 -1883 861 0
1000423 1883 -211 -861 0
1000423 -1884 212 0
1000423 -1884 872 0
1000423 1884 -212 -872 0
1000423 -1885 213 0
1000423 -1885 883 0
1000423 1885 -213 -883 0
1000423 -1886 214 0
1000423 -1886 894 0
1000423 1886 -214 -894 0
1000423 -1887 215 0
1000423 -1887 905 0
1000423 1887 -215 -905 0
1000423 -1888 216 0
1000423 -1888 916 0
1000423 1888 -216 -916 0
1000423 -1889 217 0
1000423 -1889 927 0
1000423 1889 -217 -927 0
1000423 -1890 218 0
1000423 -1890 938 0
1000423 1890 -218 -938 0
1000423 -1891 219 0
1000423 -1891 949 0
1000423 1891 -219 -949 0
1000423 -1892 220 0
1000423 -1892 960 0
1000423 1892 -220 -960 0
1000423 -177 -488 0
1000423 -178 -499 0
1000423 -179 -510 0
1000423 -180 -521 0
1000423 -181 -532 0
1000423 -182 -543 0
1000423 -183 -554 0
1000423 -184 -565 0
1000423 -185 -576 0
1000423 -186 -587 0
1000423 -187 -598 0
1000423 -188 -609 0
1000423 -189 -620 0
1000423 -190 -631 0
1000423 -191 -642 0
1000423 -192 -653 0
1000423 -193 -664 0
1000423 -194 -675 0
1000423 -195 -686 0
1000423 -196 -697 0
1000423 -197 -708 0
1000423 -198 -719 0
1000423 -199 -730 0
1000423 -200 -741 0
1000423 -201 -752 0
1000423 -202 -763 0
1000423 -203 -774 0
1000423 -204 -785 0
1000423 -205 -796 0
1000423 -206 -807 0
1000423 -207 -818 0
1000423 -208 -829 0
1000423 -209 -840 0
1000423 -210 -851 0
1000423 -211 -862 0
1000423 -212 -873 0
1000423 -213 -884 0
1000423 -214 -895 0
1000423 -215 -906 0
1000423 -216 -917 0
1000423 -217 -928 0
1000423 -218 -939 0
1000423 -219 -950 0
1000423 -220 -961 0
1000423 -177 -489 0
1000423 -178 -500 0
1000423 -179 -511 0
1000423 -180 -522 0
1000423 -181 -533 0
1000423 -182 -544 0
1000423 -183 -555 0
1000423 -184 -566 0
1000423 -185 -577 0
1000423 -186 -588 0
1000423 -187 -599 0
1000423 -188 -610 0
1000423 -189 -621 0
1000423 -190 -632 0
1000423 -191 -643 0
1000423 -192 -654 0
1000423 -193 -665 0
1000423 -194 -676 0
1000423 -195 -687 0
1000423 -196 -698 0
1000423 -197 -709 0
1000423 -198 -720 0
1000423 -199 -731 0
1000423 -200 -742 0
1000423 -201 -753 0
1000423 -202 -764 0
1000423 -203 -775 0
1000423 -204 -786 0
1000423 -205 -797 0
1000423 -206 -808 0
1000423 -207 -819 0
1000423 -208 -830 0
1000423 -209 -841 0
1000423 -210 -852 0
1000423 -211 -863 0
1000423 -212 -874 0
1000423 -213 -885 0
1000423 -214 -896 0
1000423 -215 -907 0
1000423 -216 -918 0
1000423 -217 -929 0
1000423 -218 -940 0
1000423 -219 -951 0
1000423 -220 -962 0
1000423 1893 1894 1895 1896 1897 1898 1899 1900 1901 1902 1903 1904 1905 1906 1907 1908 1909 1910 1911 1912 1913 1914 1915 1916 1917 1918 1919 1920 1921 1922 1923 1924 1925 1926 1927 1928 1929 1930 1931 1932 1933 1934 1935 1936 0
1000423 -1893 177 0
1000423 -1893 490 0
1000423 1893 -177 -490 0
1000423 -1894 178 0
1000423 -1894 501 0
1000423 1894 -178 -501 0
1000423 -1895 179 0
1000423 -1895 512 0
1000423 1895 -179 -512 0
1000423 -1896 180 0
1000423 -1896 523 0
1000423 1896 -180 -523 0
1000423 -1897 181 0
1000423 -1897 534 0
1000423 1897 -181 -534 0
1000423 -1898 182 0
1000423 -1898 545 0
1000423 1898 -182 -545 0
1000423 -1899 183 0
1000423 -1899 556 0
1000423 1899 -183 -556 0
1000423 -1900 184 0
1000423 -1900 567 0
1000423 1900 -184 -567 0
1000423 -1901 185 0
1000423 -1901 578 0
1000423 1901 -185 -578 0
1000423 -1902 186 0
1000423 -1902 589 0
1000423 1902 -186 -589 0
1000423 -1903 187 0
1000423 -1903 600 0
1000423 1903 -187 -600 0
1000423 -1904 188 0
1000423 -1904 611 0
1000423 1904 -188 -611 0
1000423 -1905 189 0
1000423 -1905 622 0
1000423 1905 -189 -622 0
1000423 -1906 190 0
1000423 -1906 633 0
1000423 1906 -190 -633 0
1000423 -1907 191 0
1000423 -1907 644 0
1000423 1907 -191 -644 0
1000423 -1908 192 0
1000423 -1908 655 0
1000423 1908 -192 -655 0
1000423 -1909 193 0
1000423 -1909 666 0
1000423 1909 -193 -666 0
1000423 -1910 194 0
1000423 -1910 677 0
1000423 1910 -194 -677 0
1000423 -1911 195 0
1000423 -1911 688 0
1000423 1911 -195 -688 0
1000423 -1912 196 0
1000423 -1912 699 0
1000423 1912 -196 -699 0
1000423 -1913 197 0
1000423 -1913 710 0
1000423 1913 -197 -710 0
1000423 -1914 198 0
1000423 -1914 721 0
1000423 1914 -198 -721 0
1000423 -1915 199 0
1000423 -1915 732 0
1000423 1915 -199 -732 0
1000423 -1916 200 0
1000423 -1916 743 0
1000423 1916 -200 -743 0
1000423 -1917 201 0
1000423 -1917 754 0
1000423 1917 -201 -754 0
1000423 -1918 202 0
1000423 -1918 765 0
1000423 1918 -202 -765 0
1000423 -1919 203 0
1000423 -1919 776 0
1000423 1919 -203 -776 0
1000423 -1920 204 0
1000423 -1920 787 0
1000423 1920 -204 -787 0
1000423 -1921 205 0
1000423 -1921 798 0
1000423 1921 -205 -798 0
1000423 -1922 206 0
1000423 -1922 809 0
1000423 1922 -206 -809 0
1000423 -1923 207 0
1000423 -1923 820 0
1000423 1923 -207 -820 0
1000423 -1924 208 0
1000423 -1924 831 0
1000423 1924 -208 -831 0
1000423 -1925 209 0
1000423 -1925 842 0
1000423 1925 -209 -842 0
1000423 -1926 210 0
1000423 -1926 853 0
1000423 1926 -210 -853 0
1000423 -1927 211 0
1000423 -1927 864 0
1000423 1927 -211 -864 0
1000423 -1928 212 0
1000423 -1928 875 0
1000423 1928 -212 -875 0
1000423 -1929 213 0
1000423 -1929 886 0
1000423 1929 -213 -886 0
1000423 -1930 214 0
1000423 -1930 897 0
1000423 1930 -214 -897 0
1000423 -1931 215 0
1000423 -1931 908 0
1000423 1931 -215 -908 0
1000423 -1932 216 0
1000423 -1932 919 0
1000423 1932 -216 -919 0
1000423 -1933 217 0
1000423 -1933 930 0
1000423 1933 -217 -930 0
1000423 -1934 218 0
1000423 -1934 941 0
1000423 1934 -218 -941 0
1000423 -1935 219 0
1000423 -1935 952 0
1000423 1935 -219 -952 0
1000423 -1936 220 0
1000423 -1936 963 0
1000423 1936 -220 -963 0
1000423 -177 -491 0
1000423 -178 -502 0
1000423 -179 -513 0
1000423 -180 -524 0
1000423 -181 -535 0
1000423 -182 -546 0
1000423 -183 -557 0
1000423 -184 -568 0
1000423 -185 -579 0
1000423 -186 -590 0
1000423 -187 -601 0
1000423 -188 -612 0
1000423 -189 -623 0
1000423 -190 -634 0
1000423 -191 -645 0
1000423 -192 -656 0
1000423 -193 -667 0
1000423 -194 -678 0
1000423 -195 -689 0
1000423 -196 -700 0
1000423 -197 -711 0
1000423 -198 -722 0
1000423 -199 -733 0
1000423 -200 -744 0
1000423 -201 -755 0
1000423 -202 -766 0
1000423 -203 -777 0
1000423 -204 -788 0
1000423 -205 -799 0
1000423 -206 -810 0
1000423 -207 -821 0
1000423 -208 -832 0
1000423 -209 -843 0
1000423 -210 -854 0
1000423 -211 -865 0
1000423 -212 -876 0
1000423 -213 -887 0
1000423 -214 -898 0
1000423 -215 -909 0
1000423 -216 -920 0
1000423 -217 -931 0
1000423 -218 -942 0
1000423 -219 -953 0
1000423 -220 -964 0
1000423 -177 -492 0
1000423 -178 -503 0
1000423 -179 -514 0
1000423 -180 -525 0
1000423 -181 -536 0
1000423 -182 -547 0
1000423 -183 -558 0
1000423 -184 -569 0
1000423 -185 -580 0
1000423 -186 -591 0
1000423 -187 -602 0
1000423 -188 -613 0
1000423 -189 -624 0
1000423 -190 -635 0
1000423 -191 -646 0
1000423 -192 -657 0
1000423 -193 -668 0
1000423 -194 -679 0
1000423 -195 -690 0
1000423 -196 -701 0
1000423 -197 -712 0
1000423 -198 -723 0
1000423 -199 -734 0
1000423 -200 -745 0
1000423 -201 -756 0
1000423 -202 -767 0
1000423 -203 -778 0
1000423 -204 -789 0
1000423 -205 -800 0
1000423 -206 -811 0
1000423 -207 -822 0
1000423 -208 -833 0
1000423 -209 -844 0
1000423 -210 -855 0
1000423 -211 -866 0
1000423 -212 -877 0
1000423 -213 -888 0
1000423 -214 -899 0
1000423 -215 -910 0
1000423 -216 -921 0
1000423 -217 -932 0
1000423 -218 -943 0
1000423 -219 -954 0
1000423 -220 -965 0
1000423 -177 -493 0
1000423 -178 -504 0
1000423 -179 -515 0
1000423 -180 -526 0
1000423 -181 -537 0
1000423 -182 -548 0
1000423 -183 -559 0
1000423 -184 -570 0
1000423 -185 -581 0
1000423 -186 -592 0
1000423 -187 -603 0
1000423 -188 -614 0
1000423 -189 -625 0
1000423 -190 -636 0
1000423 -191 -647 0
1000423 -192 -658 0
1000423 -193 -669 0
1000423 -194 -680 0
1000423 -195 -691 0
1000423 -196 -702 0
1000423 -197 -713 0
1000423 -198 -724 0
1000423 -199 -735 0
1000423 -200 -746 0
1000423 -201 -757 0
1000423 -202 -768 0
1000423 -203 -779 0
1000423 -204 -790 0
1000423 -205 -801 0
1000423 -206 -812 0
1000423 -207 -823 0
1000423 -208 -834 0
1000423 -209 -845 0
1000423 -210 -856 0
1000423 -211 -867 0
1000423 -212 -878 0
1000423 -213 -889 0
1000423 -214 -900 0
1000423 -215 -911 0
1000423 -216 -922 0
1000423 -217 -933 0
1000423 -218 -944 0
1000423 -219 -955 0
1000423 -220 -966 0
1000423 -177 -494 0
1000423 -178 -505 0
1000423 -179 -516 0
1000423 -180 -527 0
1000423 -181 -538 0
1000423 -182 -549 0
1000423 -183 -560 0
1000423 -184 -571 0
1000423 -185 -582 0
1000423 -186 -593 0
1000423 -187 -604 0
1000423 -188 -615 0
1000423 -189 -626 0
1000423 -190 -637 0
1000423 -191 -648 0
1000423 -192 -659 0
1000423 -193 -670 0
1000423 -194 -681 0
1000423 -195 -692 0
1000423 -196 -703 0
1000423 -197 -714 0
1000423 -198 -725 0
1000423 -199 -736 0
1000423 -200 -747 0
1000423 -201 -758 0
1000423 -202 -769 0
1000423 -203 -780 0
1000423 -204 -791 0
1000423 -205 -802 0
1000423 -206 -813 0
1000423 -207 -824 0
1000423 -208 -835 0
1000423 -209 -846 0
1000423 -210 -857 0
1000423 -211 -868 0
1000423 -212 -879 0
1000423 -213 -890 0
1000423 -214 -901 0
1000423 -215 -912 0
1000423 -216 -923 0
1000423 -217 -934 0
1000423 -218 -945 0
1000423 -219 -956 0
1000423 -220 -967 0
1000423 -177 -495 0
1000423 -178 -506 0
1000423 -179 -517 0
1000423 -180 -528 0
1000423 -181 -539 0
1000423 -182 -550 0
1000423 -183 -561 0
1000423 -184 -572 0
1000423 -185 -583 0
1000423 -186 -594 0
1000423 -187 -605 0
1000423 -188 -616 0
1000423 -189 -627 0
1000423 -190 -638 0
1000423 -191 -649 0
1000423 -192 -660 0
1000423 -193 -671 0
1000423 -194 -682 0
1000423 -195 -693 0
1000423 -196 -704 0
1000423 -197 -715 0
1000423 -198 -726 0
1000423 -199 -737 0
1000423 -200 -748 0
1000423 -201 -759 0
1000423 -202 -770 0
1000423 -203 -781 0
1000423 -204 -792 0
1000423 -205 -803 0
1000423 -206 -814 0
1000423 -207 -825 0
1000423 -208 -836 0
1000423 -209 -847 0
1000423 -210 -858 0
1000423 -211 -869 0
1000423 -212 -880 0
1000423 -213 -891 0
1000423 -214 -902 0
1000423 -215 -913 0
1000423 -216 -924 0
1000423 -217 -935 0
1000423 -218 -946 0
1000423 -219 -957 0
1000423 -220 -968 0
1000423 1937 1938 1939 1940 1941 1942 1943 1944 1945 1946 1947 1948 1949 1950 1951 1952 1953 1954 1955 1956 1957 1958 1959 1960 1961 1962 1963 1964 1965 1966 1967 1968 1969 1970 1971 1972 1973 1974 1975 1976 1977 1978 1979 1980 0
1000423 -1937 221 0
1000423 -1937 485 0
1000423 1937 -221 -485 0
1000423 -1938 222 0
1000423 -1938 496 0
1000423 1938 -222 -496 0
1000423 -1939 223 0
1000423 -1939 507 0
1000423 1939 -223 -507 0
1000423 -1940 224 0
1000423 -1940 518 0
1000423 1940 -224 -518 0
1000423 -1941 225 0
1000423 -1941 529 0
1000423 1941 -225 -529 0
1000423 -1942 226 0
1000423 -1942 540 0
1000423 1942 -226 -540 0
1000423 -1943 227 0
1000423 -1943 551 0
1000423 1943 -227 -551 0
1000423 -1944 228 0
1000423 -1944 562 0
1000423 1944 -228 -562 0
1000423 -1945 229 0
1000423 -1945 573 0
1000423 1945 -229 -573 0
1000423 -1946 230 0
1000423 -1946 584 0
1000423 1946 -230 -584 0
1000423 -1947 231 0
1000423 -1947 595 0
1000423 1947 -231 -595 0
1000423 -1948 232 0
1000423 -1948 606 0
1000423 1948 -232 -606 0
1000423 -1949 233 0
1000423 -1949 617 0
1000423 1949 -233 -617 0
1000423 -1950 234 0
1000423 -1950 628 0
1000423 1950 -234 -628 0
1000423 -1951 235 0
1000423 -1951 639 0
1000423 1951 -235 -639 0
1000423 -1952 236 0
1000423 -1952 650 0
1000423 1952 -236 -650 0
1000423 -1953 237 0
1000423 -1953 661 0
1000423 1953 -237 -661 0
1000423 -1954 238 0
1000423 -1954 672 0
1000423 1954 -238 -672 0
1000423 -1955 239 0
1000423 -1955 683 0
1000423 1955 -239 -683 0
1000423 -1956 240 0
1000423 -1956 694 0
1000423 1956 -240 -694 0
1000423 -1957 241 0
1000423 -1957 705 0
1000423 1957 -241 -705 0
1000423 -1958 242 0
1000423 -1958 716 0
1000423 1958 -242 -716 0
1000423 -1959 243 0
1000423 -1959 727 0
1000423 1959 -243 -727 0
1000423 -1960 244 0
1000423 -1960 738 0
1000423 1960 -244 -738 0
1000423 -1961 245 0
1000423 -1961 749 0
1000423 1961 -245 -749 0
1000423 -1962 246 0
1000423 -1962 760 0
1000423 1962 -246 -760 0
1000423 -1963 247 0
1000423 -1963 771 0
1000423 1963 -247 -771 0
1000423 -1964 248 0
1000423 -1964 782 0
1000423 1964 -248 -782 0
1000423 -1965 249 0
1000423 -1965 793 0
1000423 1965 -249 -793 0
1000423 -1966 250 0
1000423 -1966 804 0
1000423 1966 -250 -804 0
1000423 -1967 251 0
1000423 -1967 815 0
1000423 1967 -251 -815 0
1000423 -1968 252 0
1000423 -1968 826 0
1000423 1968 -252 -826 0
1000423 -1969 253 0
1000423 -1969 837 0
1000423 1969 -253 -837 0
1000423 -1970 254 0
1000423 -1970 848 0
1000423 1970 -254 -848 0
1000423 -1971 255 0
1000423 -1971 859 0
1000423 1971 -255 -859 0
1000423 -1972 256 0
1000423 -1972 870 0
1000423 1972 -256 -870 0
1000423 -1973 257 0
1000423 -1973 881 0
1000423 1973 -257 -881 0
1000423 -1974 258 0
1000423 -1974 892 0
1000423 1974 -258 -892 0
1000423 -1975 259 0
1000423 -1975 903 0
1000423 1975 -259 -903 0
1000423 -1976 260 0
1000423 -1976 914 0
1000423 1976 -260 -914 0
1000423 -1977 261 0
1000423 -1977 925 0
1000423 1977 -261 -925 0
1000423 -1978 262 0
1000423 -1978 936 0
1000423 1978 -262 -936 0
1000423 -1979 263 0
1000423 -1979 947 0
1000423 1979 -263 -947 0
1000423 -1980 264 0
1000423 -1980 958 0
1000423 1980 -264 -958 0
1000423 -221 -486 0
1000423 -222 -497 0
1000423 -223 -508 0
1000423 -224 -519 0
1000423 -225 -530 0
1000423 -226 -541 0
1000423 -227 -552 0
1000423 -228 -563 0
1000423 -229 -574 0
1000423 -230 -585 0
1000423 -231 -596 0
1000423 -232 -607 0
1000423 -233 -618 0
1000423 -234 -629 0
1000423 -235 -640 0
1000423 -236 -651 0
1000423 -237 -662 0
1000423 -238 -673 0
1000423 -239 -684 0
1000423 -240 -695 0
1000423 -241 -706 0
1000423 -242 -717 0
1000423 -243 -728 0
1000423 -244 -739 0
1000423 -245 -750 0
1000423 -246 -761 0
1000423 -247 -772 0
1000423 -248 -783 0
1000423 -249 -794 0
1000423 -250 -805 0
1000423 -251 -816 0
1000423 -252 -827 0
1000423 -253 -838 0
1000423 -254 -849 0
1000423 -255 -860 0
1000423 -256 -871 0
1000423 -257 -882 0
1000423 -258 -893 0
1000423 -259 -904 0
1000423 -260 -915 0
1000423 -261 -926 0
1000423 -262 -937 0
1000423 -263 -948 0
1000423 -264 -959 0
1000423 -221 -487 0
1000423 -222 -498 0
1000423 -223 -509 0
1000423 -224 -520 0
1000423 -225 -531 0
1000423 -226 -542 0
1000423 -227 -553 0
1000423 -228 -564 0
1000423 -229 -575 0
1000423 -230 -586 0
1000423 -231 -597 0
1000423 -232 -608 0
1000423 -233 -619 0
1000423 -234 -630 0
1000423 -235 -641 0
1000423 -236 -652 0
1000423 -237 -663 0
1000423 -238 -674 0
1000423 -239 -685 0
1000423 -240 -696 0
1000423 -241 -707 0
1000423 -242 -718 0
1000423 -243 -729 0
1000423 -244 -740 0
1000423 -245 -751 0
1000423 -246 -762 0
1000423 -247 -773 0
1000423 -248 -784 0
1000423 -249 -795 0
1000423 -250 -806 0
1000423 -251 -817 0
1000423 -252 -828 0
1000423 -253 -839 0
1000423 -254 -850 0
1000423 -255 -861 0
1000423 -256 -872 0
1000423 -257 -883 0
1000423 -258 -894 0
1000423 -259 -905 0
1000423 -260 -916 0
1000423 -261 -927 0
1000423 -262 -938 0
1000423 -263 -949 0
1000423 -264 -960 0
1000423 -221 -488 0
1000423 -222 -499 0
1000423 -223 -510 0
1000423 -224 -521 0
1000423 -225 -532 0
1000423 -226 -543 0
1000423 -227 -554 0
1000423 -228 -565 0
1000423 -229 -576 0
1000423 -230 -587 0
1000423 -231 -598 0
1000423 -232 -609 0
1000423 -233 -620 0
1000423 -234 -631 0
1000423 -235 -642 0
1000423 -236 -653 0
1000423 -237 -664 0
1000423 -238 -675 0
1000423 -239 -686 0
1000423 -240 -697 0
1000423 -241 -708 0
1000423 -242 -719 0
1000423 -243 -730 0
1000423 -244 -741 0
1000423 -245 -752 0
1000423 -246 -763 0
1000423 -247 -774 0
1000423 -248 -785 0
1000423 -249 -796 0
1000423 -250 -807 0
1000423 -251 -818 0
1000423 -252 -829 0
1000423 -253 -840 0
1000423 -254 -851 0
1000423 -255 -862 0
1000423 -256 -873 0
1000423 -257 -884 0
1000423 -258 -895 0
1000423 -259 -906 0
1000423 -260 -917 0
1000423 -261 -928 0
1000423 -262 -939 0
1000423 -263 -950 0
1000423 -264 -961 0
1000423 -221 -489 0
1000423 -222 -500 0
1000423 -223 -511 0
1000423 -224 -522 0
1000423 -225 -533 0
1000423 -226 -544 0
1000423 -227 -555 0
1000423 -228 -566 0
1000423 -229 -577 0
1000423 -230 -588 0
1000423 -231 -599 0
1000423 -232 -610 0
1000423 -233 -621 0
1000423 -234 -632 0
1000423 -235 -643 0
1000423 -236 -654 0
1000423 -237 -665 0
1000423 -238 -676 0
1000423 -239 -687 0
1000423 -240 -698 0
1000423 -241 -709 0
1000423 -242 -720 0
1000423 -243 -731 0
1000423 -244 -742 0
1000423 -245 -753 0
1000423 -246 -764 0
1000423 -247 -775 0
1000423 -248 -786 0
1000423 -249 -797 0
1000423 -250 -808 0
1000423 -251 -819 0
1000423 -252 -830 0
1000423 -253 -841 0
1000423 -254 -852 0
1000423 -255 -863 0
1000423 -256 -874 0
1000423 -257 -885 0
1000423 -258 -896 0
1000423 -259 -907 0
1000423 -260 -918 0
1000423 -261 -929 0
1000423 -262 -940 0
1000423 -263 -951 0
1000423 -264 -962 0
1000423 -221 -490 0
1000423 -222 -501 0
1000423 -223 -512 0
1000423 -224 -523 0
1000423 -225 -534 0
1000423 -226 -545 0
1000423 -227 -556 0
1000423 -228 -567 0
1000423 -229 -578 0
1000423 -230 -589 0
1000423 -231 -600 0
1000423 -232 -611 0
1000423 -233 -622 0
1000423 -234 -633 0
1000423 -235 -644 0
1000423 -236 -655 0
1000423 -237 -666 0
1000423 -238 -677 0
1000423 -239 -688 0
1000423 -240 -699 0
1000423 -241 -710 0
1000423 -242 -721 0
1000423 -243 -732 0
1000423 -244 -743 0
1000423 -245 -754 0
1000423 -246 -765 0
1000423 -247 -776 0
1000423 -248 -787 0
1000423 -249 -798 0
1000423 -250 -809 0
1000423 -251 -820 0
1000423 -252 -831 0
1000423 -253 -842 0
1000423 -254 -853 0
1000423 -255 -864 0
1000423 -256 -875 0
1000423 -257 -886 0
1000423 -258 -897 0
1000423 -259 -908 0
1000423 -260 -919 0
1000423 -261 -930 0
1000423 -262 -941 0
1000423 -263 -952 0
1000423 -264 -963 0
1000423 -221 -491 0
1000423 -222 -502 0
1000423 -223 -513 0
1000423 -224 -524 0
1000423 -225 -535 0
1000423 -226 -546 0
1000423 -227 -557 0
1000423 -228 -568 0
1000423 -229 -579 0
1000423 -230 -590 0
1000423 -231 -601 0
1000423 -232 -612 0
1000423 -233 -623 0
1000423 -234 -634 0
1000423 -235 -645 0
1000423 -236 -656 0
1000423 -237 -667 0
1000423 -238 -678 0
1000423 -239 -689 0
1000423 -240 -700 0
1000423 -241 -711 0
1000423 -242 -722 0
1000423 -243 -733 0
1000423 -244 -744 0
1000423 -245 -755 0
1000423 -246 -766 0
1000423 -247 -777 0
1000423 -248 -788 0
1000423 -249 -799 0
1000423 -250 -810 0
1000423 -251 -821 0
1000423 -252 -832 0
1000423 -253 -843 0
1000423 -254 -854 0
1000423 -255 -865 0
1000423 -256 -876 0
1000423 -257 -887 0
1000423 -258 -898 0
1000423 -259 -909 0
1000423 -260 -920 0
1000423 -261 -931 0
1000423 -262 -942 0
1000423 -263 -953 0
1000423 -264 -964 0
1000423 -221 -492 0
1000423 -222 -503 0
1000423 -223 -514 0
1000423 -224 -525 0
1000423 -225 -536 0
1000423 -226 -547 0
1000423 -227 -558 0
1000423 -228 -569 0
1000423 -229 -580 0
1000423 -230 -591 0
1000423 -231 -602 0
1000423 -232 -613 0
1000423 -233 -624 0
1000423 -234 -635 0
1000423 -235 -646 0
1000423 -236 -657 0
1000423 -237 -668 0
1000423 -238 -679 0
1000423 -239 -690 0
1000423 -240 -701 0
1000423 -241 -712 0
1000423 -242 -723 0
1000423 -243 -734 0
1000423 -244 -745 0
1000423 -245 -756 0
1000423 -246 -767 0
1000423 -247 -778 0
1000423 -248 -789 0
1000423 -249 -800 0
1000423 -250 -811 0
1000423 -251 -822 0
1000423 -252 -833 0
1000423 -253 -844 0
1000423 -254 -855 0
1000423 -255 -866 0
1000423 -256 -877 0
1000423 -257 -888 0
1000423 -258 -899 0
1000423 -259 -910 0
1000423 -260 -921 0
1000423 -261 -932 0
1000423 -262 -943 0
1000423 -263 -954 0
1000423 -264 -965 0
1000423 -221 -493 0
1000423 -222 -504 0
1000423 -223 -515 0
1000423 -224 -526 0
1000423 -225 -537 0
1000423 -226 -548 0
1000423 -227 -559 0
1000423 -228 -570 0
1000423 -229 -581 0
1000423 -230 -592 0
1000423 -231 -603 0
1000423 -232 -614 0
1000423 -233 -625 0
1000423 -234 -636 0
1000423 -235 -647 0
1000423 -236 -658 0
1000423 -237 -669 0
1000423 -238 -680 0
1000423 -239 -691 0
1000423 -240 -702 0
1000423 -241 -713 0
1000423 -242 -724 0
1000423 -243 -735 0
1000423 -244 -746 0
1000423 -245 -757 0
1000423 -246 -768 0
1000423 -247 -779 0
1000423 -248 -790 0
1000423 -249 -801 0
1000423 -250 -812 0
1000423 -251 -823 0
1000423 -252 -834 0
1000423 -253 -845 0
1000423 -254 -856 0
1000423 -255 -867 0
1000423 -256 -878 0
1000423 -257 -889 0
1000423 -258 -900 0
1000423 -259 -911 0
1000423 -260 -922 0
1000423 -261 -933 0
1000423 -262 -944 0
1000423 -263 -955 0
1000423 -264 -966 0
1000423 -221 -494 0
1000423 -222 -505 0
1000423 -223 -516 0
1000423 -224 -527 0
1000423 -225 -538 0
1000423 -226 -549 0
1000423 -227 -560 0
1000423 -228 -571 0
1000423 -229 -582 0
1000423 -230 -593 0
1000423 -231 -604 0
1000423 -232 -615 0
1000423 -233 -626 0
1000423 -234 -637 0
1000423 -235 -648 0
1000423 -236 -659 0
1000423 -237 -670 0
1000423 -238 -681 0
1000423 -239 -692 0
1000423 -240 -703 0
1000423 -241 -714 0
1000423 -242 -725 0
1000423 -243 -736 0
1000423 -244 -747 0
1000423 -245 -758 0
1000423 -246 -769 0
1000423 -247 -780 0
1000423 -248 -791 0
1000423 -249 -802 0
1000423 -250 -813 0
1000423 -251 -824 0
1000423 -252 -835 0
1000423 -253 -846 0
1000423 -254 -857 0
1000423 -255 -868 0
1000423 -256 -879 0
1000423 -257 -890 0
1000423 -258 -901 0
1000423 -259 -912 0
1000423 -260 -923 0
1000423 -261 -934 0
1000423 -262 -945 0
1000423 -263 -956 0
1000423 -264 -967 0
1000423 -221 -495 0
1000423 -222 -506 0
1000423 -223 -517 0
1000423 -224 -528 0
1000423 -225 -539 0
1000423 -226 -550 0
1000423 -227 -561 0
1000423 -228 -572 0
1000423 -229 -583 0
1000423 -230 -594 0
1000423 -231 -605 0
1000423 -232 -616 0
1000423 -233 -627 0
1000423 -234 -638 0
1000423 -235 -649 0
1000423 -236 -660 0
1000423 -237 -671 0
1000423 -238 -682 0
1000423 -239 -693 0
1000423 -240 -704 0
1000423 -241 -715 0
1000423 -242 -726 0
1000423 -243 -737 0
1000423 -244 -748 0
1000423 -245 -759 0
1000423 -246 -770 0
1000423 -247 -781 0
1000423 -248 -792 0
1000423 -249 -803 0
1000423 -250 -814 0
1000423 -251 -825 0
1000423 -252 -836 0
1000423 -253 -847 0
1000423 -254 -858 0
1000423 -255 -869 0
1000423 -256 -880 0
1000423 -257 -891 0
1000423 -258 -902 0
1000423 -259 -913 0
1000423 -260 -924 0
1000423 -261 -935 0
1000423 -262 -946 0
1000423 -263 -957 0
1000423 -264 -968 0
1000423 1981 1982 1983 1984 1985 1986 1987 1988 1989 1990 1991 1992 1993 1994 1995 1996 1997 1998 1999 2000 2001 2002 2003 2004 2005 2006 2007 2008 2009 2010 2011 2012 2013 2014 2015 2016 2017 2018 2019 2020 2021 2022 2023 2024 0
1000423 -1981 265 0
1000423 -1981 485 0
1000423 1981 -265 -485 0
1000423 -1982 266 0
1000423 -1982 496 0
1000423 1982 -266 -496 0
1000423 -1983 267 0
1000423 -1983 507 0
1000423 1983 -267 -507 0
1000423 -1984 268 0
1000423 -1984 518 0
1000423 1984 -268 -518 0
1000423 -1985 269 0
1000423 -1985 529 0
1000423 1985 -269 -529 0
1000423 -1986 270 0
1000423 -1986 540 0
1000423 1986 -270 -540 0
1000423 -1987 271 0
1000423 -1987 551 0
1000423 1987 -271 -551 0
1000423 -1988 272 0
1000423 -1988 562 0
1000423 1988 -272 -562 0
1000423 -1989 273 0
1000423 -1989 573 0
1000423 1989 -273 -573 0
1000423 -1990 274 0
1000423 -1990 584 0
1000423 1990 -274 -584 0
1000423 -1991 275 0
1000423 -1991 595 0
1000423 1991 -275 -595 0
1000423 -1992 276 0
1000423 -1992 606 0
1000423 1992 -276 -606 0
1000423 -1993 277 0
1000423 -1993 617 0
1000423 1993 -277 -617 0
1000423 -1994 278 0
1000423 -1994 628 0
1000423 1994 -278 -628 0
1000423 -1995 279 0
1000423 -1995 639 0
1000423 1995 -279 -639 0
1000423 -1996 280 0
1000423 -1996 650 0
1000423 1996 -280 -650 0
1000423 -1997 281 0
1000423 -1997 661 0
1000423 1997 -281 -661 0
1000423 -1998 282 0
1000423 -1998 672 0
1000423 1998 -282 -672 0
1000423 -1999 283 0
1000423 -1999 683 0
1000423 1999 -283 -683 0
1000423 -2000 284 0
1000423 -2000 694 0
1000423 2000 -284 -694 0
1000423 -2001 285 0
1000423 -2001 705 0
1000423 2001 -285 -705 0
1000423 -2002 286 0
1000423 -2002 716 0
1000423 2002 -286 -716 0
1000423 -2003 287 0
1000423 -2003 727 0
1000423 2003 -287 -727 0
1000423 -2004 288 0
1000423 -2004 738 0
1000423 2004 -288 -738 0
1000423 -2005 289 0
1000423 -2005 749 0
1000423 2005 -289 -749 0
1000423 -2006 290 0
1000423 -2006 760 0
1000423 2006 -290 -760 0
1000423 -2007 291 0
1000423 -2007 771 0
1000423 2007 -291 -771 0
1000423 -2008 292 0
1000423 -2008 782 0
1000423 2008 -292 -782 0
1000423 -2009 293 0
1000423 -2009 793 0
1000423 2009 -293 -793 0
1000423 -2010 294 0
1000423 -2010 804 0
1000423 2010 -294 -804 0
1000423 -2011 295 0
1000423 -2011 815 0
1000423 2011 -295 -815 0
1000423 -2012 296 0
1000423 -2012 826 0
1000423 2012 -296 -826 0
1000423 -2013 297 0
1000423 -2013 837 0
1000423 2013 -297 -837 0
1000423 -2014 298 0
1000423 -2014 848 0
1000423 2014 -298 -848 0
1000423 -2015 299 0
1000423 -2015 859 0
1000423 2015 -299 -859 0
1000423 -2016 300 0
1000423 -2016 870 0
1000423 2016 -300 -870 0
1000423 -2017 301 0
1000423 -2017 881 0
1000423 2017 -301 -881 0
1000423 -2018 302 0
1000423 -2018 892 0
1000423 2018 -302 -892 0
1000423 -2019 303 0
1000423 -2019 903 0
1000423 2019 -303 -903 0
1000423 -2020 304 0
1000423 -2020 914 0
1000423 2020 -304 -914 0
1000423 -2021 305 0
1000423 -2021 925 0
1000423 2021 -305 -925 0
1000423 -2022 306 0
1000423 -2022 936 0
1000423 2022 -306 -936 0
1000423 -2023 307 0
1000423 -2023 947 0
1000423 2023 -307 -947 0
1000423 -2024 308 0
1000423 -2024 958 0
1000423 2024 -308 -958 0
1000423 -265 -486 0
1000423 -266 -497 0
1000423 -267 -508 0
1000423 -268 -519 0
1000423 -269 -530 0
1000423 -270 -541 0
1000423 -271 -552 0
1000423 -272 -563 0
1000423 -273 -574 0
1000423 -274 -585 0
1000423 -275 -596 0
1000423 -276 -607 0
1000423 -277 -618 0
1000423 -278 -629 0
1000423 -279 -640 0
1000423 -280 -651 0
1000423 -281 -662 0
1000423 -282 -673 0
1000423 -283 -684 0
1000423 -284 -695 0
1000423 -285 -706 0
1000423 -286 -717 0
1000423 -287 -728 0
1000423 -288 -739 0
1000423 -289 -750 0
1000423 -290 -761 0
1000423 -291 -772 0
1000423 -292 -783 0
1000423 -293 -794 0
1000423 -294 -805 0
1000423 -295 -816 0
1000423 -296 -827 0
1000423 -297 -838 0
1000423 -298 -849 0
1000423 -299 -860 0
1000423 -300 -871 0
1000423 -301 -882 0
1000423 -302 -893 0
1000423 -303 -904 0
1000423 -304 -915 0
1000423 -305 -926 0
1000423 -306 -937 0
1000423 -307 -948 0
1000423 -308 -959 0
1000423 -265 -487 0
1000423 -266 -498 0
1000423 -267 -509 0
1000423 -268 -520 0
1000423 -269 -531 0
1000423 -270 -542 0
1000423 -271 -553 0
1000423 -272 -564 0
1000423 -273 -575 0
1000423 -274 -586 0
1000423 -275 -597 0
1000423 -276 -608 0
1000423 -277 -619 0
1000423 -278 -630 0
1000423 -279 -641 0
1000423 -280 -652 0
1000423 -281 -663 0
1000423 -282 -674 0
1000423 -283 -685 0
1000423 -284 -696 0
1000423 -285 -707 0
1000423 -286 -718 0
1000423 -287 -729 0
1000423 -288 -740 0
1000423 -289 -751 0
1000423 -290 -762 0
1000423 -291 -773 0
1000423 -292 -784 0
1000423 -293 -795 0
1000423 -294 -806 0
1000423 -295 -817 0
1000423 -296 -828 0
1000423 -297 -839 0
1000423 -298 -850 0
1000423 -299 -861 0
1000423 -300 -872 0
1000423 -301 -883 0
1000423 -302 -894 0
1000423 -303 -905 0
1000423 -304 -916 0
1000423 -305 -927 0
1000423 -306 -938 0
1000423 -307 -949 0
1000423 -308 -960 0
1000423 -265 -488 0
1000423 -266 -499 0
1000423 -267 -510 0
1000423 -268 -521 0
1000423 -269 -532 0
1000423 -270 -543 0
1000423 -271 -554 0
1000423 -272 -565 0
1000423 -273 -576 0
1000423 -274 -587 0
1000423 -275 -598 0
1000423 -276 -609 0
1000423 -277 -620 0
1000423 -278 -631 0
1000423 -279 -642 0
1000423 -280 -653 0
1000423 -281 -664 0
1000423 -282 -675 0
1000423 -283 -686 0
1000423 -284 -697 0
1000423 -285 -708 0
1000423 -286 -719 0
1000423 -287 -730 0
1000423 -288 -741 0
1000423 -289 -752 0
1000423 -290 -763 0
1000423 -291 -774 0
1000423 -292 -785 0
1000423 -293 -796 0
1000423 -294 -807 0
1000423 -295 -818 0
1000423 -296 -829 0
1000423 -297 -840 0
1000423 -298 -851 0
1000423 -299 -862 0
1000423 -300 -873 0
1000423 -301 -884 0
1000423 -302 -895 0
1000423 -303 -906 0
1000423 -304 -917 0
1000423 -305 -928 0
1000423 -306 -939 0
1000423 -307 -950 0
1000423 -308 -961 0
1000423 -265 -489 0
1000423 -266 -500 0
1000423 -267 -511 0
1000423 -268 -522 0
1000423 -269 -533 0
1000423 -270 -544 0
1000423 -271 -555 0
1000423 -272 -566 0
1000423 -273 -577 0
1000423 -274 -588 0
1000423 -275 -599 0
1000423 -276 -610 0
1000423 -277 -621 0
1000423 -278 -632 0
1000423 -279 -643 0
1000423 -280 -654 0
1000423 -281 -665 0
1000423 -282 -676 0
1000423 -283 -687 0
1000423 -284 -698 0
1000423 -285 -709 0
1000423 -286 -720 0
1000423 -287 -731 0
1000423 -288 -742 0
1000423 -289 -753 0
1000423 -290 -764 0
1000423 -291 -775 0
1000423 -292 -786 0
1000423 -293 -797 0
1000423 -294 -808 0
1000423 -295 -819 0
1000423 -296 -830 0
1000423 -297 -841 0
1000423 -298 -852 0
1000423 -299 -863 0
1000423 -300 -874 0
1000423 -301 -885 0
1000423 -302 -896 0
1000423 -303 -907 0
1000423 -304 -918 0
1000423 -305 -929 0
1000423 -306 -940 0
1000423 -307 -951 0
1000423 -308 -962 0
1000423 -265 -490 0
1000423 -266 -501 0
1000423 -267 -512 0
1000423 -268 -523 0
1000423 -269 -534 0
1000423 -270 -545 0
1000423 -271 -556 0
1000423 -272 -567 0
1000423 -273 -578 0
1000423 -274 -589 0
1000423 -275 -600 0
1000423 -276 -611 0
1000423 -277 -622 0
1000423 -278 -633 0
1000423 -279 -644 0
1000423 -280 -655 0
1000423 -281 -666 0
1000423 -282 -677 0
1000423 -283 -688 0
1000423 -284 -699 0
1000423 -285 -710 0
1000423 -286 -721 0
1000423 -287 -732 0
1000423 -288 -743 0
1000423 -289 -754 0
1000423 -290 -765 0
1000423 -291 -776 0
1000423 -292 -787 0
1000423 -293 -798 0
1000423 -294 -809 0
1000423 -295 -820 0
1000423 -296 -831 0
1000423 -297 -842 0
1000423 -298 -853 0
1000423 -299 -864 0
1000423 -300 -875 0
1000423 -301 -886 0
1000423 -302 -897 0
1000423 -303 -908 0
1000423 -304 -919 0
1000423 -305 -930 0
1000423 -306 -941 0
1000423 -307 -952 0
1000423 -308 -963 0
1000423 -265 -491 0
1000423 -266 -502 0
1000423 -267 -513 0
1000423 -268 -524 0
1000423 -269 -535 0
1000423 -270 -546 0
1000423 -271 -557 0
1000423 -272 -568 0
1000423 -273 -579 0
1000423 -274 -590 0
1000423 -275 -601 0
1000423 -276 -612 0
1000423 -277 -623 0
1000423 -278 -634 0
1000423 -279 -645 0
1000423 -280 -656 0
1000423 -281 -667 0
1000423 -282 -678 0
1000423 -283 -689 0
1000423 -284 -700 0
1000423 -285 -711 0
1000423 -286 -722 0
1000423 -287 -733 0
1000423 -288 -744 0
1000423 -289 -755 0
1000423 -290 -766 0
1000423 -291 -777 0
1000423 -292 -788 0
1000423 -293 -799 0
1000423 -294 -810 0
1000423 -295 -821 0
1000423 -296 -832 0
1000423 -297 -843 0
1000423 -298 -854 0
1000423 -299 -865 0
1000423 -300 -876 0
1000423 -301 -887 0
1000423 -302 -898 0
1000423 -303 -909 0
1000423 -304 -920 0
1000423 -305 -931 0
1000423 -306 -942 0
1000423 -307 -953 0
1000423 -308 -964 0
1000423 -265 -492 0
1000423 -266 -503 0
1000423 -267 -514 0
1000423 -268 -525 0
1000423 -269 -536 0
1000423 -270 -547 0
1000423 -271 -558 0
1000423 -272 -569 0
1000423 -273 -580 0
1000423 -274 -591 0
1000423 -275 -602 0
1000423 -276 -613 0
1000423 -277 -624 0
1000423 -278 -635 0
1000423 -279 -646 0
1000423 -280 -657 0
1000423 -281 -668 0
1000423 -282 -679 0
1000423 -283 -690 0
1000423 -284 -701 0
1000423 -285 -712 0
1000423 -286 -723 0
1000423 -287 -734 0
1000423 -288 -745 0
1000423 -289 -756 0
1000423 -290 -767 0
1000423 -291 -778 0
1000423 -292 -789 0
1000423 -293 -800 0
1000423 -294 -811 0
1000423 -295 -822 0
1000423 -296 -833 0
1000423 -297 -844 0
1000423 -298 -855 0
1000423 -299 -866 0
1000423 -300 -877 0
1000423 -301 -888 0
1000423 -302 -899 0
1000423 -303 -910 0
1000423 -304 -921 0
1000423 -305 -932 0
1000423 -306 -943 0
1000423 -307 -954 0
1000423 -308 -965 0
1000423 -265 -493 0
1000423 -266 -504 0
1000423 -267 -515 0
1000423 -268 -526 0
1000423 -269 -537 0
1000423 -270 -548 0
1000423 -271 -559 0
1000423 -272 -570 0
1000423 -273 -581 0
1000423 -274 -592 0
1000423 -275 -603 0
1000423 -276 -614 0
1000423 -277 -625 0
1000423 -278 -636 0
1000423 -279 -647 0
1000423 -280 -658 0
1000423 -281 -669 0
1000423 -282 -680 0
1000423 -283 -691 0
1000423 -284 -702 0
1000423 -285 -713 0
1000423 -286 -724 0
1000423 -287 -735 0
1000423 -288 -746 0
1000423 -289 -757 0
1000423 -290 -768 0
1000423 -291 -779 0
1000423 -292 -790 0
1000423 -293 -801 0
1000423 -294 -812 0
1000423 -295 -823 0
1000423 -296 -834 0
1000423 -297 -845 0
1000423 -298 -856 0
1000423 -299 -867 0
1000423 -300 -878 0
1000423 -301 -889 0
1000423 -302 -900 0
1000423 -303 -911 0
1000423 -304 -922 0
1000423 -305 -933 0
1000423 -306 -944 0
1000423 -307 -955 0
1000423 -308 -966 0
1000423 -265 -494 0
1000423 -266 -505 0
1000423 -267 -516 0
1000423 -268 -527 0
1000423 -269 -538 0
1000423 -270 -549 0
1000423 -271 -560 0
1000423 -272 -571 0
1000423 -273 -582 0
1000423 -274 -593 0
1000423 -275 -604 0
1000423 -276 -615 0
1000423 -277 -626 0
1000423 -278 -637 0
1000423 -279 -648 0
1000423 -280 -659 0
1000423 -281 -670 0
1000423 -282 -681 0
1000423 -283 -692 0
1000423 -284 -703 0
1000423 -285 -714 0
1000423 -286 -725 0
1000423 -287 -736 0
1000423 -288 -747 0
1000423 -289 -758 0
1000423 -290 -769 0
1000423 -291 -780 0
1000423 -292 -791 0
1000423 -293 -802 0
1000423 -294 -813 0
1000423 -295 -824 0
1000423 -296 -835 0
1000423 -297 -846 0
1000423 -298 -857 0
1000423 -299 -868 0
1000423 -300 -879 0
1000423 -301 -890 0
1000423 -302 -901 0
1000423 -303 -912 0
1000423 -304 -923 0
1000423 -305 -934 0
1000423 -306 -945 0
1000423 -307 -956 0
1000423 -308 -967 0
1000423 -265 -495 0
1000423 -266 -506 0
1000423 -267 -517 0
1000423 -268 -528 0
1000423 -269 -539 0
1000423 -270 -550 0
1000423 -271 -561 0
1000423 -272 -572 0
1000423 -273 -583 0
1000423 -274 -594 0
1000423 -275 -605 0
1000423 -276 -616 0
1000423 -277 -627 0
1000423 -278 -638 0
1000423 -279 -649 0
1000423 -280 -660 0
1000423 -281 -671 0
1000423 -282 -682 0
1000423 -283 -693 0
1000423 -284 -704 0
1000423 -285 -715 0
1000423 -286 -726 0
1000423 -287 -737 0
1000423 -288 -748 0
1000423 -289 -759 0
1000423 -290 -770 0
1000423 -291 -781 0
1000423 -292 -792 0
1000423 -293 -803 0
1000423 -294 -814 0
1000423 -295 -825 0
1000423 -296 -836 0
1000423 -297 -847 0
1000423 -298 -858 0
1000423 -299 -869 0
1000423 -300 -880 0
1000423 -301 -891 0
1000423 -302 -902 0
1000423 -303 -913 0
1000423 -304 -924 0
1000423 -305 -935 0
1000423 -306 -946 0
1000423 -307 -957 0
1000423 -308 -968 0
1000423 2025 2026 2027 2028 2029 2030 2031 2032 2033 2034 2035 2036 2037 2038 2039 2040 2041 2042 2043 2044 2045 2046 2047 2048 2049 2050 2051 2052 2053 2054 2055 2056 2057 2058 2059 2060 2061 2062 2063 2064 2065 2066 2067 2068 0
1000423 -2025 309 0
1000423 -2025 485 0
1000423 2025 -309 -485 0
1000423 -2026 310 0
1000423 -2026 496 0
1000423 2026 -310 -496 0
1000423 -2027 311 0
1000423 -2027 507 0
1000423 2027 -311 -507 0
1000423 -2028 312 0
1000423 -2028 518 0
1000423 2028 -312 -518 0
1000423 -2029 313 0
1000423 -2029 529 0
1000423 2029 -313 -529 0
1000423 -2030 314 0
1000423 -2030 540 0
1000423 2030 -314 -540 0
1000423 -2031 315 0
1000423 -2031 551 0
1000423 2031 -315 -551 0
1000423 -2032 316 0
1000423 -2032 562 0
1000423 2032 -316 -562 0
1000423 -2033 317 0
1000423 -2033 573 0
1000423 2033 -317 -573 0
1000423 -2034 318 0
1000423 -2034 584 0
1000423 2034 -318 -584 0
1000423 -2035 319 0
1000423 -2035 595 0
1000423 2035 -319 -595 0
1000423 -2036 320 0
1000423 -2036 606 0
1000423 2036 -320 -606 0
1000423 -2037 321 0
1000423 -2037 617 0
1000423 2037 -321 -617 0
1000423 -2038 322 0
1000423 -2038 628 0
1000423 2038 -322 -628 0
1000423 -2039 323 0
1000423 -2039 639 0
1000423 2039 -323 -639 0
1000423 -2040 324 0
1000423 -2040 650 0
1000423 2040 -324 -650 0
1000423 -2041 325 0
1000423 -2041 661 0
1000423 2041 -325 -661 0
1000423 -2042 326 0
1000423 -2042 672 0
1000423 2042 -326 -672 0
1000423 -2043 327 0
1000423 -2043 683 0
1000423 2043 -327 -683 0
1000423 -2044 328 0
1000423 -2044 694 0
1000423 2044 -328 -694 0
1000423 -2045 329 0
1000423 -2045 705 0
1000423 2045 -329 -705 0
1000423 -2046 330 0
1000423 -2046 716 0
1000423 2046 -330 -716 0
1000423 -2047 331 0
1000423 -2047 727 0
1000423 2047 -331 -727 0
1000423 -2048 332 0
1000423 -2048 738 0
1000423 2048 -332 -738 0
1000423 -2049 333 0
1000423 -2049 749 0
1000423 2049 -333 -749 0
1000423 -2050 334 0
1000423 -2050 760 0
1000423 2050 -334 -760 0
1000423 -2051 335 0
1000423 -2051 771 0
1000423 2051 -335 -771 0
1000423 -2052 336 0
1000423 -2052 782 0
1000423 2052 -336 -782 0
1000423 -2053 337 0
1000423 -2053 793 0
1000423 2053 -337 -793 0
1000423 -2054 338 0
1000423 -2054 804 0
1000423 2054 -338 -804 0
1000423 -2055 339 0
1000423 -2055 815 0
1000423 2055 -339 -815 0
1000423 -2056 340 0
1000423 -2056 826 0
1000423 2056 -340 -826 0
1000423 -2057 341 0
1000423 -2057 837 0
1000423 2057 -341 -837 0
1000423 -2058 342 0
1000423 -2058 848 0
1000423 2058 -342 -848 0
1000423 -2059 343 0
1000423 -2059 859 0
1000423 2059 -343 -859 0
1000423 -2060 344 0
1000423 -2060 870 0
1000423 2060 -344 -870 0
1000423 -2061 345 0
1000423 -2061 881 0
1000423 2061 -345 -881 0
1000423 -2062 346 0
1000423 -2062 892 0
1000423 2062 -346 -892 0
1000423 -2063 347 0
1000423 -2063 903 0
1000423 2063 -347 -903 0
1000423 -2064 348 0
1000423 -2064 914 0
1000423 2064 -348 -914 0
1000423 -2065 349 0
1000423 -2065 925 0
1000423 2065 -349 -925 0
1000423 -2066 350 0
1000423 -2066 936 0
1000423 2066 -350 -936 0
1000423 -2067 351 0
1000423 -2067 947 0
1000423 2067 -351 -947 0
1000423 -2068 352 0
1000423 -2068 958 0
1000423 2068 -352 -958 0
1000423 2069 2070 2071 2072 2073 2074 2075 2076 2077 2078 2079 2080 2081 2082 2083 2084 2085 2086 2087 2088 2089 2090 2091 2092 2093 2094 2095 2096 2097 2098 2099 2100 2101 2102 2103 2104 2105 2106 2107 2108 2109 2110 2111 2112 0
1000423 -2069 309 0
1000423 -2069 486 0
1000423 2069 -309 -486 0
1000423 -2070 310 0
1000423 -2070 497 0
1000423 2070 -310 -497 0
1000423 -2071 311 0
1000423 -2071 508 0
1000423 2071 -311 -508 0
1000423 -2072 312 0
1000423 -2072 519 0
1000423 2072 -312 -519 0
1000423 -2073 313 0
1000423 -2073 530 0
1000423 2073 -313 -530 0
1000423 -2074 314 0
1000423 -2074 541 0
1000423 2074 -314 -541 0
1000423 -2075 315 0
1000423 -2075 552 0
1000423 2075 -315 -552 0
1000423 -2076 316 0
1000423 -2076 563 0
1000423 2076 -316 -563 0
1000423 -2077 317 0
1000423 -2077 574 0
1000423 2077 -317 -574 0
1000423 -2078 318 0
1000423 -2078 585 0
1000423 2078 -318 -585 0
1000423 -2079 319 0
1000423 -2079 596 0
1000423 2079 -319 -596 0
1000423 -2080 320 0
1000423 -2080 607 0
1000423 2080 -320 -607 0
1000423 -2081 321 0
1000423 -2081 618 0
1000423 2081 -321 -618 0
1000423 -2082 322 0
1000423 -2082 629 0
1000423 2082 -322 -629 0
1000423 -2083 323 0
1000423 -2083 640 0
1000423 2083 -323 -640 0
1000423 -2084 324 0
1000423 -2084 651 0
1000423 2084 -324 -651 0
1000423 -2085 325 0
1000423 -2085 662 0
1000423 2085 -325 -662 0
1000423 -2086 326 0
1000423 -2086 673 0
1000423 2086 -326 -673 0
1000423 -2087 327 0
1000423 -2087 684 0
1000423 2087 -327 -684 0
1000423 -2088 328 0
1000423 -2088 695 0
1000423 2088 -328 -695 0
1000423 -2089 329 0
1000423 -2089 706 0
1000423 2089 -329 -706 0
1000423 -2090 330 0
1000423 -2090 717 0
1000423 2090 -330 -717 0
1000423 -2091 331 0
1000423 -2091 728 0
1000423 2091 -331 -728 0
1000423 -2092 332 0
1000423 -2092 739 0
1000423 2092 -332 -739 0
1000423 -2093 333 0
1000423 -2093 750 0
1000423 2093 -333 -750 0
1000423 -2094 334 0
1000423 -2094 761 0
1000423 2094 -334 -761 0
1000423 -2095 335 0
1000423 -2095 772 0
1000423 2095 -335 -772 0
1000423 -2096 336 0
1000423 -2096 783 0
1000423 2096 -336 -783 0
1000423 -2097 337 0
1000423 -2097 794 0
1000423 2097 -337 -794 0
1000423 -2098 338 0
1000423 -2098 805 0
1000423 2098 -338 -805 0
1000423 -2099 339 0
1000423 -2099 816 0
1000423 2099 -339 -816 0
1000423 -2100 340 0
1000423 -2100 827 0
1000423 2100 -340 -827 0
1000423 -2101 341 0
1000423 -2101 838 0
1000423 2101 -341 -838 0
1000423 -2102 342 0
1000423 -2102 849 0
1000423 2102 -342 -849 0
1000423 -2103 343 0
1000423 -2103 860 0
1000423 2103 -343 -860 0
1000423 -2104 344 0
1000423 -2104 871 0
1000423 2104 -344 -871 0
1000423 -2105 345 0
1000423 -2105 882 0
1000423 2105 -345 -882 0
1000423 -2106 346 0
1000423 -2106 893 0
1000423 2106 -346 -893 0
1000423 -2107 347 0
1000423 -2107 904 0
1000423 2107 -347 -904 0
1000423 -2108 348 0
1000423 -2108 915 0
1000423 2108 -348 -915 0
1000423 -2109 349 0
1000423 -2109 926 0
1000423 2109 -349 -926 0
1000423 -2110 350 0
1000423 -2110 937 0
1000423 2110 -350 -937 0
1000423 -2111 351 0
1000423 -2111 948 0
1000423 2111 -351 -948 0
1000423 -2112 352 0
1000423 -2112 959 0
1000423 2112 -352 -959 0
1000423 -309 -487 0
1000423 -310 -498 0
1000423 -311 -509 0
1000423 -312 -520 0
1000423 -313 -531 0
1000423 -314 -542 0
1000423 -315 -553 0
1000423 -316 -564 0
1000423 -317 -575 0
1000423 -318 -586 0
1000423 -319 -597 0
1000423 -320 -608 0
1000423 -321 -619 0
1000423 -322 -630 0
1000423 -323 -641 0
1000423 -324 -652 0
1000423 -325 -663 0
1000423 -326 -674 0
1000423 -327 -685 0
1000423 -328 -696 0
1000423 -329 -707 0
1000423 -330 -718 0
1000423 -331 -729 0
1000423 -332 -740 0
1000423 -333 -751 0
1000423 -334 -762 0
1000423 -335 -773 0
1000423 -336 -784 0
1000423 -337 -795 0
1000423 -338 -806 0
1000423 -339 -817 0
1000423 -340 -828 0
1000423 -341 -839 0
1000423 -342 -850 0
1000423 -343 -861 0
1000423 -344 -872 0
1000423 -345 -883 0
1000423 -346 -894 0
1000423 -347 -905 0
1000423 -348 -916 0
1000423 -349 -927 0
1000423 -350 -938 0
1000423 -351 -949 0
1000423 -352 -960 0
1000423 -309 -488 0
1000423 -310 -499 0
1000423 -311 -510 0
1000423 -312 -521 0
1000423 -313 -532 0
1000423 -314 -543 0
1000423 -315 -554 0
1000423 -316 -565 0
1000423 -317 -576 0
1000423 -318 -587 0
1000423 -319 -598 0
1000423 -320 -609 0
1000423 -321 -620 0
1000423 -322 -631 0
1000423 -323 -642 0
1000423 -324 -653 0
1000423 -325 -664 0
1000423 -326 -675 0
1000423 -327 -686 0
1000423 -328 -697 0
1000423 -329 -708 0
1000423 -330 -719 0
1000423 -331 -730 0
1000423 -332 -741 0
1000423 -333 -752 0
1000423 -334 -763 0
1000423 -335 -774 0
1000423 -336 -785 0
1000423 -337 -796 0
1000423 -338 -807 0
1000423 -339 -818 0
1000423 -340 -829 0
1000423 -341 -840 0
1000423 -342 -851 0
1000423 -343 -862 0
1000423 -344 -873 0
1000423 -345 -884 0
1000423 -346 -895 0
1000423 -347 -906 0
1000423 -348 -917 0
1000423 -349 -928 0
1000423 -350 -939 0
1000423 -351 -950 0
1000423 -352 -961 0
1000423 -309 -489 0
1000423 -310 -500 0
1000423 -311 -511 0
1000423 -312 -522 0
1000423 -313 -533 0
1000423 -314 -544 0
1000423 -315 -555 0
1000423 -316 -566 0
1000423 -317 -577 0
1000423 -318 -588 0
1000423 -319 -599 0
1000423 -320 -610 0
1000423 -321 -621 0
1000423 -322 -632 0
1000423 -323 -643 0
1000423 -324 -654 0
1000423 -325 -665 0
1000423 -326 -676 0
1000423 -327 -687 0
1000423 -328 -698 0
1000423 -329 -709 0
1000423 -330 -720 0
1000423 -331 -731 0
1000423 -332 -742 0
1000423 -333 -753 0
1000423 -334 -764 0
1000423 -335 -775 0
1000423 -336 -786 0
1000423 -337 -797 0
1000423 -338 -808 0
1000423 -339 -819 0
1000423 -340 -830 0
1000423 -341 -841 0
1000423 -342 -852 0
1000423 -343 -863 0
1000423 -344 -874 0
1000423 -345 -885 0
1000423 -346 -896 0
1000423 -347 -907 0
1000423 -348 -918 0
1000423 -349 -929 0
1000423 -350 -940 0
1000423 -351 -951 0
1000423 -352 -962 0
1000423 -309 -490 0
1000423 -310 -501 0
1000423 -311 -512 0
1000423 -312 -523 0
1000423 -313 -534 0
1000423 -314 -545 0
1000423 -315 -556 0
1000423 -316 -567 0
1000423 -317 -578 0
1000423 -318 -589 0
1000423 -319 -600 0
1000423 -320 -611 0
1000423 -321 -622 0
1000423 -322 -633 0
1000423 -323 -644 0
1000423 -324 -655 0
1000423 -325 -666 0
1000423 -326 -677 0
1000423 -327 -688 0
1000423 -328 -699 0
1000423 -329 -710 0
1000423 -330 -721 0
1000423 -331 -732 0
1000423 -332 -743 0
1000423 -333 -754 0
1000423 -334 -765 0
1000423 -335 -776 0
1000423 -336 -787 0
1000423 -337 -798 0
1000423 -338 -809 0
1000423 -339 -820 0
1000423 -340 -831 0
1000423 -341 -842 0
1000423 -342 -853 0
1000423 -343 -864 0
1000423 -344 -875 0
1000423 -345 -886 0
1000423 -346 -897 0
1000423 -347 -908 0
1000423 -348 -919 0
1000423 -349 -930 0
1000423 -350 -941 0
1000423 -351 -952 0
1000423 -352 -963 0
1000423 -309 -491 0
1000423 -310 -502 0
1000423 -311 -513 0
1000423 -312 -524 0
1000423 -313 -535 0
1000423 -314 -546 0
1000423 -315 -557 0
1000423 -316 -568 0
1000423 -317 -579 0
1000423 -318 -590 0
1000423 -319 -601 0
1000423 -320 -612 0
1000423 -321 -623 0
1000423 -322 -634 0
1000423 -323 -645 0
1000423 -324 -656 0
1000423 -325 -667 0
1000423 -326 -678 0
1000423 -327 -689 0
1000423 -328 -700 0
1000423 -329 -711 0
1000423 -330 -722 0
1000423 -331 -733 0
1000423 -332 -744 0
1000423 -333 -755 0
1000423 -334 -766 0
1000423 -335 -777 0
1000423 -336 -788 0
1000423 -337 -799 0
1000423 -338 -810 0
1000423 -339 -821 0
1000423 -340 -832 0
1000423 -341 -843 0
1000423 -342 -854 0
1000423 -343 -865 0
1000423 -344 -876 0
1000423 -345 -887 0
1000423 -346 -898 0
1000423 -347 -909 0
1000423 -348 -920 0
1000423 -349 -931 0
1000423 -350 -942 0
1000423 -351 -953 0
1000423 -352 -964 0
1000423 -309 -492 0
1000423 -310 -503 0
1000423 -311 -514 0
1000423 -312 -525 0
1000423 -313 -536 0
1000423 -314 -547 0
1000423 -315 -558 0
1000423 -316 -569 0
1000423 -317 -580 0
1000423 -318 -591 0
1000423 -319 -602 0
1000423 -320 -613 0
1000423 -321 -624 0
1000423 -322 -635 0
1000423 -323 -646 0
1000423 -324 -657 0
1000423 -325 -668 0
1000423 -326 -679 0
1000423 -327 -690 0
1000423 -328 -701 0
1000423 -329 -712 0
1000423 -330 -723 0
1000423 -331 -734 0
1000423 -332 -745 0
1000423 -333 -756 0
1000423 -334 -767 0
1000423 -335 -778 0
1000423 -336 -789 0
1000423 -337 -800 0
1000423 -338 -811 0
1000423 -339 -822 0
1000423 -340 -833 0
1000423 -341 -844 0
1000423 -342 -855 0
1000423 -343 -866 0
1000423 -344 -877 0
1000423 -345 -888 0
1000423 -346 -899 0
1000423 -347 -910 0
1000423 -348 -921 0
1000423 -349 -932 0
1000423 -350 -943 0
1000423 -351 -954 0
1000423 -352 -965 0
1000423 -309 -493 0
1000423 -310 -504 0
1000423 -311 -515 0
1000423 -312 -526 0
1000423 -313 -537 0
1000423 -314 -548 0
1000423 -315 -559 0
1000423 -316 -570 0
1000423 -317 -581 0
1000423 -318 -592 0
1000423 -319 -603 0
1000423 -320 -614 0
1000423 -321 -625 0
1000423 -322 -636 0
1000423 -323 -647 0
1000423 -324 -658 0
1000423 -325 -669 0
1000423 -326 -680 0
1000423 -327 -691 0
1000423 -328 -702 0
1000423 -329 -713 0
1000423 -330 -724 0
1000423 -331 -735 0
1000423 -332 -746 0
1000423 -333 -757 0
1000423 -334 -768 0
1000423 -335 -779 0
1000423 -336 -790 0
1000423 -337 -801 0
1000423 -338 -812 0
1000423 -339 -823 0
1000423 -340 -834 0
1000423 -341 -845 0
1000423 -342 -856 0
1000423 -343 -867 0
1000423 -344 -878 0
1000423 -345 -889 0
1000423 -346 -900 0
1000423 -347 -911 0
1000423 -348 -922 0
1000423 -349 -933 0
1000423 -350 -944 0
1000423 -351 -955 0
1000423 -352 -966 0
1000423 -309 -494 0
1000423 -310 -505 0
1000423 -311 -516 0
1000423 -312 -527 0
1000423 -313 -538 0
1000423 -314 -549 0
1000423 -315 -560 0
1000423 -316 -571 0
1000423 -317 -582 0
1000423 -318 -593 0
1000423 -319 -604 0
1000423 -320 -615 0
1000423 -321 -626 0
1000423 -322 -637 0
1000423 -323 -648 0
1000423 -324 -659 0
1000423 -325 -670 0
1000423 -326 -681 0
1000423 -327 -692 0
1000423 -328 -703 0
1000423 -329 -714 0
1000423 -330 -725 0
1000423 -331 -736 0
1000423 -332 -747 0
1000423 -333 -758 0
1000423 -334 -769 0
1000423 -335 -780 0
1000423 -336 -791 0
1000423 -337 -802 0
1000423 -338 -813 0
1000423 -339 -824 0
1000423 -340 -835 0
1000423 -341 -846 0
1000423 -342 -857 0
1000423 -343 -868 0
1000423 -344 -879 0
1000423 -345 -890 0
1000423 -346 -901 0
1000423 -347 -912 0
1000423 -348 -923 0
1000423 -349 -934 0
1000423 -350 -945 0
1000423 -351 -956 0
1000423 -352 -967 0
1000423 -309 -495 0
1000423 -310 -506 0
1000423 -311 -517 0
1000423 -312 -528 0
1000423 -313 -539 0
1000423 -314 -550 0
1000423 -315 -561 0
1000423 -316 -572 0
1000423 -317 -583 0
1000423 -318 -594 0
1000423 -319 -605 0
1000423 -320 -616 0
1000423 -321 -627 0
1000423 -322 -638 0
1000423 -323 -649 0
1000423 -324 -660 0
1000423 -325 -671 0
1000423 -326 -682 0
1000423 -327 -693 0
1000423 -328 -704 0
1000423 -329 -715 0
1000423 -330 -726 0
1000423 -331 -737 0
1000423 -332 -748 0
1000423 -333 -759 0
1000423 -334 -770 0
1000423 -335 -781 0
1000423 -336 -792 0
1000423 -337 -803 0
1000423 -338 -814 0
1000423 -339 -825 0
1000423 -340 -836 0
1000423 -341 -847 0
1000423 -342 -858 0
1000423 -343 -869 0
1000423 -344 -880 0
1000423 -345 -891 0
1000423 -346 -902 0
1000423 -347 -913 0
1000423 -348 -924 0
1000423 -349 -935 0
1000423 -350 -946 0
1000423 -351 -957 0
1000423 -352 -968 0
1000423 2113 2114 2115 2116 2117 2118 2119 2120 2121 2122 2123 2124 2125 2126 2127 2128 2129 2130 2131 2132 2133 2134 2135 2136 2137 2138 2139 2140 2141 2142 2143 2144 2145 2146 2147 2148 2149 2150 2151 2152 2153 2154 2155 2156 0
1000423 -2113 353 0
1000423 -2113 485 0
1000423 2113 -353 -485 0
1000423 -2114 354 0
1000423 -2114 496 0
1000423 2114 -354 -496 0
1000423 -2115 355 0
1000423 -2115 507 0
1000423 2115 -355 -507 0
1000423 -2116 356 0
1000423 -2116 518 0
1000423 2116 -356 -518 0
1000423 -2117 357 0
1000423 -2117 529 0
1000423 2117 -357 -529 0
1000423 -2118 358 0
1000423 -2118 540 0
1000423 2118 -358 -540 0
1000423 -2119 359 0
1000423 -2119 551 0
1000423 2119 -359 -551 0
1000423 -2120 360 0
1000423 -2120 562 0
1000423 2120 -360 -562 0
1000423 -2121 361 0
1000423 -2121 573 0
1000423 2121 -361 -573 0
1000423 -2122 362 0
1000423 -2122 584 0
1000423 2122 -362 -584 0
1000423 -2123 363 0
1000423 -2123 595 0
1000423 2123 -363 -595 0
1000423 -2124 364 0
1000423 -2124 606 0
1000423 2124 -364 -606 0
1000423 -2125 365 0
1000423 -2125 617 0
1000423 2125 -365 -617 0
1000423 -2126 366 0
1000423 -2126 628 0
1000423 2126 -366 -628 0
1000423 -2127 367 0
1000423 -2127 639 0
1000423 2127 -367 -639 0
1000423 -2128 368 0
1000423 -2128 650 0
1000423 2128 -368 -650 0
1000423 -2129 369 0
1000423 -2129 661 0
1000423 2129 -369 -661 0
1000423 -2130 370 0
1000423 -2130 672 0
1000423 2130 -370 -672 0
1000423 -2131 371 0
1000423 -2131 683 0
1000423 2131 -371 -683 0
1000423 -2132 372 0
1000423 -2132 694 0
1000423 2132 -372 -694 0
1000423 -2133 373 0
1000423 -2133 705 0
1000423 2133 -373 -705 0
1000423 -2134 374 0
1000423 -2134 716 0
1000423 2134 -374 -716 0
1000423 -2135 375 0
1000423 -2135 727 0
1000423 2135 -375 -727 0
1000423 -2136 376 0
1000423 -2136 738 0
1000423 2136 -376 -738 0
1000423 -2137 377 0
1000423 -2137 749 0
1000423 2137 -377 -749 0
1000423 -2138 378 0
1000423 -2138 760 0
1000423 2138 -378 -760 0
1000423 -2139 379 0
1000423 -2139 771 0
1000423 2139 -379 -771 0
1000423 -2140 380 0
1000423 -2140 782 0
1000423 2140 -380 -782 0
1000423 -2141 381 0
1000423 -2141 793 0
1000423 2141 -381 -793 0
1000423 -2142 382 0
1000423 -2142 804 0
1000423 2142 -382 -804 0
1000423 -2143 383 0
1000423 -2143 815 0
1000423 2143 -383 -815 0
1000423 -2144 384 0
1000423 -2144 826 0
1000423 2144 -384 -826 0
1000423 -2145 385 0
1000423 -2145 837 0
1000423 2145 -385 -837 0
1000423 -2146 386 0
1000423 -2146 848 0
1000423 2146 -386 -848 0
1000423 -2147 387 0
1000423 -2147 859 0
1000423 2147 -387 -859 0
1000423 -2148 388 0
1000423 -2148 870 0
1000423 2148 -388 -870 0
1000423 -2149 389 0
1000423 -2149 881 0
1000423 2149 -389 -881 0
1000423 -2150 390 0
1000423 -2150 892 0
1000423 2150 -390 -892 0
1000423 -2151 391 0
1000423 -2151 903 0
1000423 2151 -391 -903 0
1000423 -2152 392 0
1000423 -2152 914 0
1000423 2152 -392 -914 0
1000423 -2153 393 0
1000423 -2153 925 0
1000423 2153 -393 -925 0
1000423 -2154 394 0
1000423 -2154 936 0
1000423 2154 -394 -936 0
1000423 -2155 395 0
1000423 -2155 947 0
1000423 2155 -395 -947 0
1000423 -2156 396 0
1000423 -2156 958 0
1000423 2156 -396 -958 0
1000423 2157 2158 2159 2160 2161 2162 2163 2164 2165 2166 2167 2168 2169 2170 2171 2172 2173 2174 2175 2176 2177 2178 2179 2180 2181 2182 2183 2184 2185 2186 2187 2188 2189 2190 2191 2192 2193 2194 2195 2196 2197 2198 2199 2200 0
1000423 -2157 353 0
1000423 -2157 486 0
1000423 2157 -353 -486 0
1000423 -2158 354 0
1000423 -2158 497 0
1000423 2158 -354 -497 0
1000423 -2159 355 0
1000423 -2159 508 0
1000423 2159 -355 -508 0
1000423 -2160 356 0
1000423 -2160 519 0
1000423 2160 -356 -519 0
1000423 -2161 357 0
1000423 -2161 530 0
1000423 2161 -357 -530 0
1000423 -2162 358 0
1000423 -2162 541 0
1000423 2162 -358 -541 0
1000423 -2163 359 0
1000423 -2163 552 0
1000423 2163 -359 -552 0
1000423 -2164 360 0
1000423 -2164 563 0
1000423 2164 -360 -563 0
1000423 -2165 361 0
1000423 -2165 574 0
1000423 2165 -361 -574 0
1000423 -2166 362 0
1000423 -2166 585 0
1000423 2166 -362 -585 0
1000423 -2167 363 0
1000423 -2167 596 0
1000423 2167 -363 -596 0
1000423 -2168 364 0
1000423 -2168 607 0
1000423 2168 -364 -607 0
1000423 -2169 365 0
1000423 -2169 618 0
1000423 2169 -365 -618 0
1000423 -2170 366 0
1000423 -2170 629 0
1000423 2170 -366 -629 0
1000423 -2171 367 0
1000423 -2171 640 0
1000423 2171 -367 -640 0
1000423 -2172 368 0
1000423 -2172 651 0
1000423 2172 -368 -651 0
1000423 -2173 369 0
1000423 -2173 662 0
1000423 2173 -369 -662 0
1000423 -2174 370 0
1000423 -2174 673 0
1000423 2174 -370 -673 0
1000423 -2175 371 0
1000423 -2175 684 0
1000423 2175 -371 -684 0
1000423 -2176 372 0
1000423 -2176 695 0
1000423 2176 -372 -695 0
1000423 -2177 373 0
1000423 -2177 706 0
1000423 2177 -373 -706 0
1000423 -2178 374 0
1000423 -2178 717 0
1000423 2178 -374 -717 0
1000423 -2179 375 0
1000423 -2179 728 0
1000423 2179 -375 -728 0
1000423 -2180 376 0
1000423 -2180 739 0
1000423 2180 -376 -739 0
1000423 -2181 377 0
1000423 -2181 750 0
1000423 2181 -377 -750 0
1000423 -2182 378 0
1000423 -2182 761 0
1000423 2182 -378 -761 0
1000423 -2183 379 0
1000423 -2183 772 0
1000423 2183 -379 -772 0
1000423 -2184 380 0
1000423 -2184 783 0
1000423 2184 -380 -783 0
1000423 -2185 381 0
1000423 -2185 794 0
1000423 2185 -381 -794 0
1000423 -2186 382 0
1000423 -2186 805 0
1000423 2186 -382 -805 0
1000423 -2187 383 0
1000423 -2187 816 0
1000423 2187 -383 -816 0
1000423 -2188 384 0
1000423 -2188 827 0
1000423 2188 -384 -827 0
1000423 -2189 385 0
1000423 -2189 838 0
1000423 2189 -385 -838 0
1000423 -2190 386 0
1000423 -2190 849 0
1000423 2190 -386 -849 0
1000423 -2191 387 0
1000423 -2191 860 0
1000423 2191 -387 -860 0
1000423 -2192 388 0
1000423 -2192 871 0
1000423 2192 -388 -871 0
1000423 -2193 389 0
1000423 -2193 882 0
1000423 2193 -389 -882 0
1000423 -2194 390 0
1000423 -2194 893 0
1000423 2194 -390 -893 0
1000423 -2195 391 0
1000423 -2195 904 0
1000423 2195 -391 -904 0
1000423 -2196 392 0
1000423 -2196 915 0
1000423 2196 -392 -915 0
1000423 -2197 393 0
1000423 -2197 926 0
1000423 2197 -393 -926 0
1000423 -2198 394 0
1000423 -2198 937 0
1000423 2198 -394 -937 0
1000423 -2199 395 0
1000423 -2199 948 0
1000423 2199 -395 -948 0
1000423 -2200 396 0
1000423 -2200 959 0
1000423 2200 -396 -959 0
1000423 -353 -487 0
1000423 -354 -498 0
1000423 -355 -509 0
1000423 -356 -520 0
1000423 -357 -531 0
1000423 -358 -542 0
1000423 -359 -553 0
1000423 -360 -564 0
1000423 -361 -575 0
1000423 -362 -586 0
1000423 -363 -597 0
1000423 -364 -608 0
1000423 -365 -619 0
1000423 -366 -630 0
1000423 -367 -641 0
1000423 -368 -652 0
1000423 -369 -663 0
1000423 -370 -674 0
1000423 -371 -685 0
1000423 -372 -696 0
1000423 -373 -707 0
1000423 -374 -718 0
1000423 -375 -729 0
1000423 -376 -740 0
1000423 -377 -751 0
1000423 -378 -762 0
1000423 -379 -773 0
1000423 -380 -784 0
1000423 -381 -795 0
1000423 -382 -806 0
1000423 -383 -817 0
1000423 -384 -828 0
1000423 -385 -839 0
1000423 -386 -850 0
1000423 -387 -861 0
1000423 -388 -872 0
1000423 -389 -883 0
1000423 -390 -894 0
1000423 -391 -905 0
1000423 -392 -916 0
1000423 -393 -927 0
1000423 -394 -938 0
1000423 -395 -949 0
1000423 -396 -960 0
1000423 -353 -488 0
1000423 -354 -499 0
1000423 -355 -510 0
1000423 -356 -521 0
1000423 -357 -532 0
1000423 -358 -543 0
1000423 -359 -554 0
1000423 -360 -565 0
1000423 -361 -576 0
1000423 -362 -587 0
1000423 -363 -598 0
1000423 -364 -609 0
1000423 -365 -620 0
1000423 -366 -631 0
1000423 -367 -642 0
1000423 -368 -653 0
1000423 -369 -664 0
1000423 -370 -675 0
1000423 -371 -686 0
1000423 -372 -697 0
1000423 -373 -708 0
1000423 -374 -719 0
1000423 -375 -730 0
1000423 -376 -741 0
1000423 -377 -752 0
1000423 -378 -763 0
1000423 -379 -774 0
1000423 -380 -785 0
1000423 -381 -796 0
1000423 -382 -807 0
1000423 -383 -818 0
1000423 -384 -829 0
1000423 -385 -840 0
1000423 -386 -851 0
1000423 -387 -862 0
1000423 -388 -873 0
1000423 -389 -884 0
1000423 -390 -895 0
1000423 -391 -906 0
1000423 -392 -917 0
1000423 -393 -928 0
1000423 -394 -939 0
1000423 -395 -950 0
1000423 -396 -961 0
1000423 2201 2202 2203 2204 2205 2206 2207 2208 2209 2210 2211 2212 2213 2214 2215 2216 2217 2218 2219 2220 2221 2222 2223 2224 2225 2226 2227 2228 2229 2230 2231 2232 2233 2234 2235 2236 2237 2238 2239 2240 2241 2242 2243 2244 0
1000423 -2201 353 0
1000423 -2201 489 0
1000423 2201 -353 -489 0
1000423 -2202 354 0
1000423 -2202 500 0
1000423 2202 -354 -500 0
1000423 -2203 355 0
1000423 -2203 511 0
1000423 2203 -355 -511 0
1000423 -2204 356 0
1000423 -2204 522 0
1000423 2204 -356 -522 0
1000423 -2205 357 0
1000423 -2205 533 0
1000423 2205 -357 -533 0
1000423 -2206 358 0
1000423 -2206 544 0
1000423 2206 -358 -544 0
1000423 -2207 359 0
1000423 -2207 555 0
1000423 2207 -359 -555 0
1000423 -2208 360 0
1000423 -2208 566 0
1000423 2208 -360 -566 0
1000423 -2209 361 0
1000423 -2209 577 0
1000423 2209 -361 -577 0
1000423 -2210 362 0
1000423 -2210 588 0
1000423 2210 -362 -588 0
1000423 -2211 363 0
1000423 -2211 599 0
1000423 2211 -363 -599 0
1000423 -2212 364 0
1000423 -2212 610 0
1000423 2212 -364 -610 0
1000423 -2213 365 0
1000423 -2213 621 0
1000423 2213 -365 -621 0
1000423 -2214 366 0
1000423 -2214 632 0
1000423 2214 -366 -632 0
1000423 -2215 367 0
1000423 -2215 643 0
1000423 2215 -367 -643 0
1000423 -2216 368 0
1000423 -2216 654 0
1000423 2216 -368 -654 0
1000423 -2217 369 0
1000423 -2217 665 0
1000423 2217 -369 -665 0
1000423 -2218 370 0
1000423 -2218 676 0
1000423 2218 -370 -676 0
1000423 -2219 371 0
1000423 -2219 687 0
1000423 2219 -371 -687 0
1000423 -2220 372 0
1000423 -2220 698 0
1000423 2220 -372 -698 0
1000423 -2221 373 0
1000423 -2221 709 0
1000423 2221 -373 -709 0
1000423 -2222 374 0
1000423 -2222 720 0
1000423 2222 -374 -720 0
1000423 -2223 375 0
1000423 -2223 731 0
1000423 2223 -375 -731 0
1000423 -2224 376 0
1000423 -2224 742 0
1000423 2224 -376 -742 0
1000423 -2225 377 0
1000423 -2225 753 0
1000423 2225 -377 -753 0
1000423 -2226 378 0
1000423 -2226 764 0
1000423 2226 -378 -764 0
1000423 -2227 379 0
1000423 -2227 775 0
1000423 2227 -379 -775 0
1000423 -2228 380 0
1000423 -2228 786 0
1000423 2228 -380 -786 0
1000423 -2229 381 0
1000423 -2229 797 0
1000423 2229 -381 -797 0
1000423 -2230 382 0
1000423 -2230 808 0
1000423 2230 -382 -808 0
1000423 -2231 383 0
1000423 -2231 819 0
1000423 2231 -383 -819 0
1000423 -2232 384 0
1000423 -2232 830 0
1000423 2232 -384 -830 0
1000423 -2233 385 0
1000423 -2233 841 0
1000423 2233 -385 -841 0
1000423 -2234 386 0
1000423 -2234 852 0
1000423 2234 -386 -852 0
1000423 -2235 387 0
1000423 -2235 863 0
1000423 2235 -387 -863 0
1000423 -2236 388 0
1000423 -2236 874 0
1000423 2236 -388 -874 0
1000423 -2237 389 0
1000423 -2237 885 0
1000423 2237 -389 -885 0
1000423 -2238 390 0
1000423 -2238 896 0
1000423 2238 -390 -896 0
1000423 -2239 391 0
1000423 -2239 907 0
1000423 2239 -391 -907 0
1000423 -2240 392 0
1000423 -2240 918 0
1000423 2240 -392 -918 0
1000423 -2241 393 0
1000423 -2241 929 0
1000423 2241 -393 -929 0
1000423 -2242 394 0
1000423 -2242 940 0
1000423 2242 -394 -940 0
1000423 -2243 395 0
1000423 -2243 951 0
1000423 2243 -395 -951 0
1000423 -2244 396 0
1000423 -2244 962 0
1000423 2244 -396 -962 0
1000423 2245 2246 2247 2248 2249 2250 2251 2252 2253 2254 2255 2256 2257 2258 2259 2260 2261 2262 2263 2264 2265 2266 2267 2268 2269 2270 2271 2272 2273 2274 2275 2276 2277 2278 2279 2280 2281 2282 2283 2284 2285 2286 2287 2288 0
1000423 -2245 353 0
1000423 -2245 490 0
1000423 2245 -353 -490 0
1000423 -2246 354 0
1000423 -2246 501 0
1000423 2246 -354 -501 0
1000423 -2247 355 0
1000423 -2247 512 0
1000423 2247 -355 -512 0
1000423 -2248 356 0
1000423 -2248 523 0
1000423 2248 -356 -523 0
1000423 -2249 357 0
1000423 -2249 534 0
1000423 2249 -357 -534 0
1000423 -2250 358 0
1000423 -2250 545 0
1000423 2250 -358 -545 0
1000423 -2251 359 0
1000423 -2251 556 0
1000423 2251 -359 -556 0
1000423 -2252 360 0
1000423 -2252 567 0
1000423 2252 -360 -567 0
1000423 -2253 361 0
1000423 -2253 578 0
1000423 2253 -361 -578 0
1000423 -2254 362 0
1000423 -2254 589 0
1000423 2254 -362 -589 0
1000423 -2255 363 0
1000423 -2255 600 0
1000423 2255 -363 -600 0
1000423 -2256 364 0
1000423 -2256 611 0
1000423 2256 -364 -611 0
1000423 -2257 365 0
1000423 -2257 622 0
1000423 2257 -365 -622 0
1000423 -2258 366 0
1000423 -2258 633 0
1000423 2258 -366 -633 0
1000423 -2259 367 0
1000423 -2259 644 0
1000423 2259 -367 -644 0
1000423 -2260 368 0
1000423 -2260 655 0
1000423 2260 -368 -655 0
1000423 -2261 369 0
1000423 -2261 666 0
1000423 2261 -369 -666 0
1000423 -2262 370 0
1000423 -2262 677 0
1000423 2262 -370 -677 0
1000423 -2263 371 0
1000423 -2263 688 0
1000423 2263 -371 -688 0
1000423 -2264 372 0
1000423 -2264 699 0
1000423 2264 -372 -699 0
1000423 -2265 373 0
1000423 -2265 710 0
1000423 2265 -373 -710 0
1000423 -2266 374 0
1000423 -2266 721 0
1000423 2266 -374 -721 0
1000423 -2267 375 0
1000423 -2267 732 0
1000423 2267 -375 -732 0
1000423 -2268 376 0
1000423 -2268 743 0
1000423 2268 -376 -743 0
1000423 -2269 377 0
1000423 -2269 754 0
1000423 2269 -377 -754 0
1000423 -2270 378 0
1000423 -2270 765 0
1000423 2270 -378 -765 0
1000423 -2271 379 0
1000423 -2271 776 0
1000423 2271 -379 -776 0
1000423 -2272 380 0
1000423 -2272 787 0
1000423 2272 -380 -787 0
1000423 -2273 381 0
1000423 -2273 798 0
1000423 2273 -381 -798 0
1000423 -2274 382 0
1000423 -2274 809 0
1000423 2274 -382 -809 0
1000423 -2275 383 0
1000423 -2275 820 0
1000423 2275 -383 -820 0
1000423 -2276 384 0
1000423 -2276 831 0
1000423 2276 -384 -831 0
1000423 -2277 385 0
1000423 -2277 842 0
1000423 2277 -385 -842 0
1000423 -2278 386 0
1000423 -2278 853 0
1000423 2278 -386 -853 0
1000423 -2279 387 0
1000423 -2279 864 0
1000423 2279 -387 -864 0
1000423 -2280 388 0
1000423 -2280 875 0
1000423 2280 -388 -875 0
1000423 -2281 389 0
1000423 -2281 886 0
1000423 2281 -389 -886 0
1000423 -2282 390 0
1000423 -2282 897 0
1000423 2282 -390 -897 0
1000423 -2283 391 0
1000423 -2283 908 0
1000423 2283 -391 -908 0
1000423 -2284 392 0
1000423 -2284 919 0
1000423 2284 -392 -919 0
1000423 -2285 393 0
1000423 -2285 930 0
1000423 2285 -393 -930 0
1000423 -2286 394 0
1000423 -2286 941 0
1000423 2286 -394 -941 0
1000423 -2287 395 0
1000423 -2287 952 0
1000423 2287 -395 -952 0
1000423 -2288 396 0
1000423 -2288 963 0
1000423 2288 -396 -963 0
1000423 -353 -491 0
1000423 -354 -502 0
1000423 -355 -513 0
1000423 -356 -524 0
1000423 -357 -535 0
1000423 -358 -546 0
1000423 -359 -557 0
1000423 -360 -568 0
1000423 -361 -579 0
1000423 -362 -590 0
1000423 -363 -601 0
1000423 -364 -612 0
1000423 -365 -623 0
1000423 -366 -634 0
1000423 -367 -645 0
1000423 -368 -656 0
1000423 -369 -667 0
1000423 -370 -678 0
1000423 -371 -689 0
1000423 -372 -700 0
1000423 -373 -711 0
1000423 -374 -722 0
1000423 -375 -733 0
1000423 -376 -744 0
1000423 -377 -755 0
1000423 -378 -766 0
1000423 -379 -777 0
1000423 -380 -788 0
1000423 -381 -799 0
1000423 -382 -810 0
1000423 -383 -821 0
1000423 -384 -832 0
1000423 -385 -843 0
1000423 -386 -854 0
1000423 -387 -865 0
1000423 -388 -876 0
1000423 -389 -887 0
1000423 -390 -898 0
1000423 -391 -909 0
1000423 -392 -920 0
1000423 -393 -931 0
1000423 -394 -942 0
1000423 -395 -953 0
1000423 -396 -964 0
1000423 -353 -492 0
1000423 -354 -503 0
1000423 -355 -514 0
1000423 -356 -525 0
1000423 -357 -536 0
1000423 -358 -547 0
1000423 -359 -558 0
1000423 -360 -569 0
1000423 -361 -580 0
1000423 -362 -591 0
1000423 -363 -602 0
1000423 -364 -613 0
1000423 -365 -624 0
1000423 -366 -635 0
1000423 -367 -646 0
1000423 -368 -657 0
1000423 -369 -668 0
1000423 -370 -679 0
1000423 -371 -690 0
1000423 -372 -701 0
1000423 -373 -712 0
1000423 -374 -723 0
1000423 -375 -734 0
1000423 -376 -745 0
1000423 -377 -756 0
1000423 -378 -767 0
1000423 -379 -778 0
1000423 -380 -789 0
1000423 -381 -800 0
1000423 -382 -811 0
1000423 -383 -822 0
1000423 -384 -833 0
1000423 -385 -844 0
1000423 -386 -855 0
1000423 -387 -866 0
1000423 -388 -877 0
1000423 -389 -888 0
1000423 -390 -899 0
1000423 -391 -910 0
1000423 -392 -921 0
1000423 -393 -932 0
1000423 -394 -943 0
1000423 -395 -954 0
1000423 -396 -965 0
1000423 2289 2290 2291 2292 2293 2294 2295 2296 2297 2298 2299 2300 2301 2302 2303 2304 2305 2306 2307 2308 2309 2310 2311 2312 2313 2314 2315 2316 2317 2318 2319 2320 2321 2322 2323 2324 2325 2326 2327 2328 2329 2330 2331 2332 0
1000423 -2289 353 0
1000423 -2289 493 0
1000423 2289 -353 -493 0
1000423 -2290 354 0
1000423 -2290 504 0
1000423 2290 -354 -504 0
1000423 -2291 355 0
1000423 -2291 515 0
1000423 2291 -355 -515 0
1000423 -2292 356 0
1000423 -2292 526 0
1000423 2292 -356 -526 0
1000423 -2293 357 0
1000423 -2293 537 0
1000423 2293 -357 -537 0
1000423 -2294 358 0
1000423 -2294 548 0
1000423 2294 -358 -548 0
1000423 -2295 359 0
1000423 -2295 559 0
1000423 2295 -359 -559 0
1000423 -2296 360 0
1000423 -2296 570 0
1000423 2296 -360 -570 0
1000423 -2297 361 0
1000423 -2297 581 0
1000423 2297 -361 -581 0
1000423 -2298 362 0
1000423 -2298 592 0
1000423 2298 -362 -592 0
1000423 -2299 363 0
1000423 -2299 603 0
1000423 2299 -363 -603 0
1000423 -2300 364 0
1000423 -2300 614 0
1000423 2300 -364 -614 0
1000423 -2301 365 0
1000423 -2301 625 0
1000423 2301 -365 -625 0
1000423 -2302 366 0
1000423 -2302 636 0
1000423 2302 -366 -636 0
1000423 -2303 367 0
1000423 -2303 647 0
1000423 2303 -367 -647 0
1000423 -2304 368 0
1000423 -2304 658 0
1000423 2304 -368 -658 0
1000423 -2305 369 0
1000423 -2305 669 0
1000423 2305 -369 -669 0
1000423 -2306 370 0
1000423 -2306 680 0
1000423 2306 -370 -680 0
1000423 -2307 371 0
1000423 -2307 691 0
1000423 2307 -371 -691 0
1000423 -2308 372 0
1000423 -2308 702 0
1000423 2308 -372 -702 0
1000423 -2309 373 0
1000423 -2309 713 0
1000423 2309 -373 -713 0
1000423 -2310 374 0
1000423 -2310 724 0
1000423 2310 -374 -724 0
1000423 -2311 375 0
1000423 -2311 735 0
1000423 2311 -375 -735 0
1000423 -2312 376 0
1000423 -2312 746 0
1000423 2312 -376 -746 0
1000423 -2313 377 0
1000423 -2313 757 0
1000423 2313 -377 -757 0
1000423 -2314 378 0
1000423 -2314 768 0
1000423 2314 -378 -768 0
1000423 -2315 379 0
1000423 -2315 779 0
1000423 2315 -379 -779 0
1000423 -2316 380 0
1000423 -2316 790 0
1000423 2316 -380 -790 0
1000423 -2317 381 0
1000423 -2317 801 0
1000423 2317 -381 -801 0
1000423 -2318 382 0
1000423 -2318 812 0
1000423 2318 -382 -812 0
1000423 -2319 383 0
1000423 -2319 823 0
1000423 2319 -383 -823 0
1000423 -2320 384 0
1000423 -2320 834 0
1000423 2320 -384 -834 0
1000423 -2321 385 0
1000423 -2321 845 0
1000423 2321 -385 -845 0
1000423 -2322 386 0
1000423 -2322 856 0
1000423 2322 -386 -856 0
1000423 -2323 387 0
1000423 -2323 867 0
1000423 2323 -387 -867 0
1000423 -2324 388 0
1000423 -2324 878 0
1000423 2324 -388 -878 0
1000423 -2325 389 0
1000423 -2325 889 0
1000423 2325 -389 -889 0
1000423 -2326 390 0
1000423 -2326 900 0
1000423 2326 -390 -900 0
1000423 -2327 391 0
1000423 -2327 911 0
1000423 2327 -391 -911 0
1000423 -2328 392 0
1000423 -2328 922 0
1000423 2328 -392 -922 0
1000423 -2329 393 0
1000423 -2329 933 0
1000423 2329 -393 -933 0
1000423 -2330 394 0
1000423 -2330 944 0
1000423 2330 -394 -944 0
1000423 -2331 395 0
1000423 -2331 955 0
1000423 2331 -395 -955 0
1000423 -2332 396 0
1000423 -2332 966 0
1000423 2332 -396 -966 0
1000423 -353 -494 0
1000423 -354 -505 0
1000423 -355 -516 0
1000423 -356 -527 0
1000423 -357 -538 0
1000423 -358 -549 0
1000423 -359 -560 0
1000423 -360 -571 0
1000423 -361 -582 0
1000423 -362 -593 0
1000423 -363 -604 0
1000423 -364 -615 0
1000423 -365 -626 0
1000423 -366 -637 0
1000423 -367 -648 0
1000423 -368 -659 0
1000423 -369 -670 0
1000423 -370 -681 0
1000423 -371 -692 0
1000423 -372 -703 0
1000423 -373 -714 0
1000423 -374 -725 0
1000423 -375 -736 0
1000423 -376 -747 0
1000423 -377 -758 0
1000423 -378 -769 0
1000423 -379 -780 0
1000423 -380 -791 0
1000423 -381 -802 0
1000423 -382 -813 0
1000423 -383 -824 0
1000423 -384 -835 0
1000423 -385 -846 0
1000423 -386 -857 0
1000423 -387 -868 0
1000423 -388 -879 0
1000423 -389 -890 0
1000423 -390 -901 0
1000423 -391 -912 0
1000423 -392 -923 0
1000423 -393 -934 0
1000423 -394 -945 0
1000423 -395 -956 0
1000423 -396 -967 0
1000423 -353 -495 0
1000423 -354 -506 0
1000423 -355 -517 0
1000423 -356 -528 0
1000423 -357 -539 0
1000423 -358 -550 0
1000423 -359 -561 0
1000423 -360 -572 0
1000423 -361 -583 0
1000423 -362 -594 0
1000423 -363 -605 0
1000423 -364 -616 0
1000423 -365 -627 0
1000423 -366 -638 0
1000423 -367 -649 0
1000423 -368 -660 0
1000423 -369 -671 0
1000423 -370 -682 0
1000423 -371 -693 0
1000423 -372 -704 0
1000423 -373 -715 0
1000423 -374 -726 0
1000423 -375 -737 0
1000423 -376 -748 0
1000423 -377 -759 0
1000423 -378 -770 0
1000423 -379 -781 0
1000423 -380 -792 0
1000423 -381 -803 0
1000423 -382 -814 0
1000423 -383 -825 0
1000423 -384 -836 0
1000423 -385 -847 0
1000423 -386 -858 0
1000423 -387 -869 0
1000423 -388 -880 0
1000423 -389 -891 0
1000423 -390 -902 0
1000423 -391 -913 0
1000423 -392 -924 0
1000423 -393 -935 0
1000423 -394 -946 0
1000423 -395 -957 0
1000423 -396 -968 0
1000423 2333 2334 2335 2336 2337 2338 2339 2340 2341 2342 2343 2344 2345 2346 2347 2348 2349 2350 2351 2352 2353 2354 2355 2356 2357 2358 2359 2360 2361 2362 2363 2364 2365 2366 2367 2368 2369 2370 2371 2372 2373 2374 2375 2376 0
1000423 -2333 397 0
1000423 -2333 485 0
1000423 2333 -397 -485 0
1000423 -2334 398 0
1000423 -2334 496 0
1000423 2334 -398 -496 0
1000423 -2335 399 0
1000423 -2335 507 0
1000423 2335 -399 -507 0
1000423 -2336 400 0
1000423 -2336 518 0
1000423 2336 -400 -518 0
1000423 -2337 401 0
1000423 -2337 529 0
1000423 2337 -401 -529 0
1000423 -2338 402 0
1000423 -2338 540 0
1000423 2338 -402 -540 0
1000423 -2339 403 0
1000423 -2339 551 0
1000423 2339 -403 -551 0
1000423 -2340 404 0
1000423 -2340 562 0
1000423 2340 -404 -562 0
1000423 -2341 405 0
1000423 -2341 573 0
1000423 2341 -405 -573 0
1000423 -2342 406 0
1000423 -2342 584 0
1000423 2342 -406 -584 0
1000423 -2343 407 0
1000423 -2343 595 0
1000423 2343 -407 -595 0
1000423 -2344 408 0
1000423 -2344 606 0
1000423 2344 -408 -606 0
1000423 -2345 409 0
1000423 -2345 617 0
1000423 2345 -409 -617 0
1000423 -2346 410 0
1000423 -2346 628 0
1000423 2346 -410 -628 0
1000423 -2347 411 0
1000423 -2347 639 0
1000423 2347 -411 -639 0
1000423 -2348 412 0
1000423 -2348 650 0
1000423 2348 -412 -650 0
1000423 -2349 413 0
1000423 -2349 661 0
1000423 2349 -413 -661 0
1000423 -2350 414 0
1000423 -2350 672 0
1000423 2350 -414 -672 0
1000423 -2351 415 0
1000423 -2351 683 0
1000423 2351 -415 -683 0
1000423 -2352 416 0
1000423 -2352 694 0
1000423 2352 -416 -694 0
1000423 -2353 417 0
1000423 -2353 705 0
1000423 2353 -417 -705 0
1000423 -2354 418 0
1000423 -2354 716 0
1000423 2354 -418 -716 0
1000423 -2355 419 0
1000423 -2355 727 0
1000423 2355 -419 -727 0
1000423 -2356 420 0
1000423 -2356 738 0
1000423 2356 -420 -738 0
1000423 -2357 421 0
1000423 -2357 749 0
1000423 2357 -421 -749 0
1000423 -2358 422 0
1000423 -2358 760 0
1000423 2358 -422 -760 0
1000423 -2359 423 0
1000423 -2359 771 0
1000423 2359 -423 -771 0
1000423 -2360 424 0
1000423 -2360 782 0
1000423 2360 -424 -782 0
1000423 -2361 425 0
1000423 -2361 793 0
1000423 2361 -425 -793 0
1000423 -2362 426 0
1000423 -2362 804 0
1000423 2362 -426 -804 0
1000423 -2363 427 0
1000423 -2363 815 0
1000423 2363 -427 -815 0
1000423 -2364 428 0
1000423 -2364 826 0
1000423 2364 -428 -826 0
1000423 -2365 429 0
1000423 -2365 837 0
1000423 2365 -429 -837 0
1000423 -2366 430 0
1000423 -2366 848 0
1000423 2366 -430 -848 0
1000423 -2367 431 0
1000423 -2367 859 0
1000423 2367 -431 -859 0
1000423 -2368 432 0
1000423 -2368 870 0
1000423 2368 -432 -870 0
1000423 -2369 433 0
1000423 -2369 881 0
1000423 2369 -433 -881 0
1000423 -2370 434 0
1000423 -2370 892 0
1000423 2370 -434 -892 0
1000423 -2371 435 0
1000423 -2371 903 0
1000423 2371 -435 -903 0
1000423 -2372 436 0
1000423 -2372 914 0
1000423 2372 -436 -914 0
1000423 -2373 437 0
1000423 -2373 925 0
1000423 2373 -437 -925 0
1000423 -2374 438 0
1000423 -2374 936 0
1000423 2374 -438 -936 0
1000423 -2375 439 0
1000423 -2375 947 0
1000423 2375 -439 -947 0
1000423 -2376 440 0
1000423 -2376 958 0
1000423 2376 -440 -958 0
1000423 2377 2378 2379 2380 2381 2382 2383 2384 2385 2386 2387 2388 2389 2390 2391 2392 2393 2394 2395 2396 2397 2398 2399 2400 2401 2402 2403 2404 2405 2406 2407 2408 2409 2410 2411 2412 2413 2414 2415 2416 2417 2418 2419 2420 0
1000423 -2377 397 0
1000423 -2377 486 0
1000423 2377 -397 -486 0
1000423 -2378 398 0
1000423 -2378 497 0
1000423 2378 -398 -497 0
1000423 -2379 399 0
1000423 -2379 508 0
1000423 2379 -399 -508 0
1000423 -2380 400 0
1000423 -2380 519 0
1000423 2380 -400 -519 0
1000423 -2381 401 0
1000423 -2381 530 0
1000423 2381 -401 -530 0
1000423 -2382 402 0
1000423 -2382 541 0
1000423 2382 -402 -541 0
1000423 -2383 403 0
1000423 -2383 552 0
1000423 2383 -403 -552 0
1000423 -2384 404 0
1000423 -2384 563 0
1000423 2384 -404 -563 0
1000423 -2385 405 0
1000423 -2385 574 0
1000423 2385 -405 -574 0
1000423 -2386 406 0
1000423 -2386 585 0
1000423 2386 -406 -585 0
1000423 -2387 407 0
1000423 -2387 596 0
1000423 2387 -407 -596 0
1000423 -2388 408 0
1000423 -2388 607 0
1000423 2388 -408 -607 0
1000423 -2389 409 0
1000423 -2389 618 0
1000423 2389 -409 -618 0
1000423 -2390 410 0
1000423 -2390 629 0
1000423 2390 -410 -629 0
1000423 -2391 411 0
1000423 -2391 640 0
1000423 2391 -411 -640 0
1000423 -2392 412 0
1000423 -2392 651 0
1000423 2392 -412 -651 0
1000423 -2393 413 0
1000423 -2393 662 0
1000423 2393 -413 -662 0
1000423 -2394 414 0
1000423 -2394 673 0
1000423 2394 -414 -673 0
1000423 -2395 415 0
1000423 -2395 684 0
1000423 2395 -415 -684 0
1000423 -2396 416 0
1000423 -2396 695 0
1000423 2396 -416 -695 0
1000423 -2397 417 0
1000423 -2397 706 0
1000423 2397 -417 -706 0
1000423 -2398 418 0
1000423 -2398 717 0
1000423 2398 -418 -717 0
1000423 -2399 419 0
1000423 -2399 728 0
1000423 2399 -419 -728 0
1000423 -2400 420 0
1000423 -2400 739 0
1000423 2400 -420 -739 0
1000423 -2401 421 0
1000423 -2401 750 0
1000423 2401 -421 -750 0
1000423 -2402 422 0
1000423 -2402 761 0
1000423 2402 -422 -761 0
1000423 -2403 423 0
1000423 -2403 772 0
1000423 2403 -423 -772 0
1000423 -2404 424 0
1000423 -2404 783 0
1000423 2404 -424 -783 0
1000423 -2405 425 0
1000423 -2405 794 0
1000423 2405 -425 -794 0
1000423 -2406 426 0
1000423 -2406 805 0
1000423 2406 -426 -805 0
1000423 -2407 427 0
1000423 -2407 816 0
1000423 2407 -427 -816 0
1000423 -2408 428 0
1000423 -2408 827 0
1000423 2408 -428 -827 0
1000423 -2409 429 0
1000423 -2409 838 0
1000423 2409 -429 -838 0
1000423 -2410 430 0
1000423 -2410 849 0
1000423 2410 -430 -849 0
1000423 -2411 431 0
1000423 -2411 860 0
1000423 2411 -431 -860 0
1000423 -2412 432 0
1000423 -2412 871 0
1000423 2412 -432 -871 0
1000423 -2413 433 0
1000423 -2413 882 0
1000423 2413 -433 -882 0
1000423 -2414 434 0
1000423 -2414 893 0
1000423 2414 -434 -893 0
1000423 -2415 435 0
1000423 -2415 904 0
1000423 2415 -435 -904 0
1000423 -2416 436 0
1000423 -2416 915 0
1000423 2416 -436 -915 0
1000423 -2417 437 0
1000423 -2417 926 0
1000423 2417 -437 -926 0
1000423 -2418 438 0
1000423 -2418 937 0
1000423 2418 -438 -937 0
1000423 -2419 439 0
1000423 -2419 948 0
1000423 2419 -439 -948 0
1000423 -2420 440 0
1000423 -2420 959 0
1000423 2420 -440 -959 0
1000423 2421 2422 2423 2424 2425 2426 2427 2428 2429 2430 2431 2432 2433 2434 2435 2436 2437 2438 2439 2440 2441 2442 2443 2444 2445 2446 2447 2448 2449 2450 2451 2452 2453 2454 2455 2456 2457 2458 2459 2460 2461 2462 2463 2464 0
1000423 -2421 397 0
1000423 -2421 487 0
1000423 2421 -397 -487 0
1000423 -2422 398 0
1000423 -2422 498 0
1000423 2422 -398 -498 0
1000423 -2423 399 0
1000423 -2423 509 0
1000423 2423 -399 -509 0
1000423 -2424 400 0
1000423 -2424 520 0
1000423 2424 -400 -520 0
1000423 -2425 401 0
1000423 -2425 531 0
1000423 2425 -401 -531 0
1000423 -2426 402 0
1000423 -2426 542 0
1000423 2426 -402 -542 0
1000423 -2427 403 0
1000423 -2427 553 0
1000423 2427 -403 -553 0
1000423 -2428 404 0
1000423 -2428 564 0
1000423 2428 -404 -564 0
1000423 -2429 405 0
1000423 -2429 575 0
1000423 2429 -405 -575 0
1000423 -2430 406 0
1000423 -2430 586 0
1000423 2430 -406 -586 0
1000423 -2431 407 0
1000423 -2431 597 0
1000423 2431 -407 -597 0
1000423 -2432 408 0
1000423 -2432 608 0
1000423 2432 -408 -608 0
1000423 -2433 409 0
1000423 -2433 619 0
1000423 2433 -409 -619 0
1000423 -2434 410 0
1000423 -2434 630 0
1000423 2434 -410 -630 0
1000423 -2435 411 0
1000423 -2435 641 0
1000423 2435 -411 -641 0
1000423 -2436 412 0
1000423 -2436 652 0
1000423 2436 -412 -652 0
1000423 -2437 413 0
1000423 -2437 663 0
1000423 2437 -413 -663 0
1000423 -2438 414 0
1000423 -2438 674 0
1000423 2438 -414 -674 0
1000423 -2439 415 0
1000423 -2439 685 0
1000423 2439 -415 -685 0
1000423 -2440 416 0
1000423 -2440 696 0
1000423 2440 -416 -696 0
1000423 -2441 417 0
1000423 -2441 707 0
1000423 2441 -417 -707 0
1000423 -2442 418 0
1000423 -2442 718 0
1000423 2442 -418 -718 0
1000423 -2443 419 0
1000423 -2443 729 0
1000423 2443 -419 -729 0
1000423 -2444 420 0
1000423 -2444 740 0
1000423 2444 -420 -740 0
1000423 -2445 421 0
1000423 -2445 751 0
1000423 2445 -421 -751 0
1000423 -2446 422 0
1000423 -2446 762 0
1000423 2446 -422 -762 0
1000423 -2447 423 0
1000423 -2447 773 0
1000423 2447 -423 -773 0
1000423 -2448 424 0
1000423 -2448 784 0
1000423 2448 -424 -784 0
1000423 -2449 425 0
1000423 -2449 795 0
1000423 2449 -425 -795 0
1000423 -2450 426 0
1000423 -2450 806 0
1000423 2450 -426 -806 0
1000423 -2451 427 0
1000423 -2451 817 0
1000423 2451 -427 -817 0
1000423 -2452 428 0
1000423 -2452 828 0
1000423 2452 -428 -828 0
1000423 -2453 429 0
1000423 -2453 839 0
1000423 2453 -429 -839 0
1000423 -2454 430 0
1000423 -2454 850 0
1000423 2454 -430 -850 0
1000423 -2455 431 0
1000423 -2455 861 0
1000423 2455 -431 -861 0
1000423 -2456 432 0
1000423 -2456 872 0
1000423 2456 -432 -872 0
1000423 -2457 433 0
1000423 -2457 883 0
1000423 2457 -433 -883 0
1000423 -2458 434 0
1000423 -2458 894 0
1000423 2458 -434 -894 0
1000423 -2459 435 0
1000423 -2459 905 0
1000423 2459 -435 -905 0
1000423 -2460 436 0
1000423 -2460 916 0
1000423 2460 -436 -916 0
1000423 -2461 437 0
1000423 -2461 927 0
1000423 2461 -437 -927 0
1000423 -2462 438 0
1000423 -2462 938 0
1000423 2462 -438 -938 0
1000423 -2463 439 0
1000423 -2463 949 0
1000423 2463 -439 -949 0
1000423 -2464 440 0
1000423 -2464 960 0
1000423 2464 -440 -960 0
1000423 -397 -488 0
1000423 -398 -499 0
1000423 -399 -510 0
1000423 -400 -521 0
1000423 -401 -532 0
1000423 -402 -543 0
1000423 -403 -554 0
1000423 -404 -565 0
1000423 -405 -576 0
1000423 -406 -587 0
1000423 -407 -598 0
1000423 -408 -609 0
1000423 -409 -620 0
1000423 -410 -631 0
1000423 -411 -642 0
1000423 -412 -653 0
1000423 -413 -664 0
1000423 -414 -675 0
1000423 -415 -686 0
1000423 -416 -697 0
1000423 -417 -708 0
1000423 -418 -719 0
1000423 -419 -730 0
1000423 -420 -741 0
1000423 -421 -752 0
1000423 -422 -763 0
1000423 -423 -774 0
1000423 -424 -785 0
1000423 -425 -796 0
1000423 -426 -807 0
1000423 -427 -818 0
1000423 -428 -829 0
1000423 -429 -840 0
1000423 -430 -851 0
1000423 -431 -862 0
1000423 -432 -873 0
1000423 -433 -884 0
1000423 -434 -895 0
1000423 -435 -906 0
1000423 -436 -917 0
1000423 -437 -928 0
1000423 -438 -939 0
1000423 -439 -950 0
1000423 -440 -961 0
1000423 -397 -489 0
1000423 -398 -500 0
1000423 -399 -511 0
1000423 -400 -522 0
1000423 -401 -533 0
1000423 -402 -544 0
1000423 -403 -555 0
1000423 -404 -566 0
1000423 -405 -577 0
1000423 -406 -588 0
1000423 -407 -599 0
1000423 -408 -610 0
1000423 -409 -621 0
1000423 -410 -632 0
1000423 -411 -643 0
1000423 -412 -654 0
1000423 -413 -665 0
1000423 -414 -676 0
1000423 -415 -687 0
1000423 -416 -698 0
1000423 -417 -709 0
1000423 -418 -720 0
1000423 -419 -731 0
1000423 -420 -742 0
1000423 -421 -753 0
1000423 -422 -764 0
1000423 -423 -775 0
1000423 -424 -786 0
1000423 -425 -797 0
1000423 -426 -808 0
1000423 -427 -819 0
1000423 -428 -830 0
1000423 -429 -841 0
1000423 -430 -852 0
1000423 -431 -863 0
1000423 -432 -874 0
1000423 -433 -885 0
1000423 -434 -896 0
1000423 -435 -907 0
1000423 -436 -918 0
1000423 -437 -929 0
1000423 -438 -940 0
1000423 -439 -951 0
1000423 -440 -962 0
1000423 -397 -490 0
1000423 -398 -501 0
1000423 -399 -512 0
1000423 -400 -523 0
1000423 -401 -534 0
1000423 -402 -545 0
1000423 -403 -556 0
1000423 -404 -567 0
1000423 -405 -578 0
1000423 -406 -589 0
1000423 -407 -600 0
1000423 -408 -611 0
1000423 -409 -622 0
1000423 -410 -633 0
1000423 -411 -644 0
1000423 -412 -655 0
1000423 -413 -666 0
1000423 -414 -677 0
1000423 -415 -688 0
1000423 -416 -699 0
1000423 -417 -710 0
1000423 -418 -721 0
1000423 -419 -732 0
1000423 -420 -743 0
1000423 -421 -754 0
1000423 -422 -765 0
1000423 -423 -776 0
1000423 -424 -787 0
1000423 -425 -798 0
1000423 -426 -809 0
1000423 -427 -820 0
1000423 -428 -831 0
1000423 -429 -842 0
1000423 -430 -853 0
1000423 -431 -864 0
1000423 -432 -875 0
1000423 -433 -886 0
1000423 -434 -897 0
1000423 -435 -908 0
1000423 -436 -919 0
1000423 -437 -930 0
1000423 -438 -941 0
1000423 -439 -952 0
1000423 -440 -963 0
1000423 -397 -491 0
1000423 -398 -502 0
1000423 -399 -513 0
1000423 -400 -524 0
1000423 -401 -535 0
1000423 -402 -546 0
1000423 -403 -557 0
1000423 -404 -568 0
1000423 -405 -579 0
1000423 -406 -590 0
1000423 -407 -601 0
1000423 -408 -612 0
1000423 -409 -623 0
1000423 -410 -634 0
1000423 -411 -645 0
1000423 -412 -656 0
1000423 -413 -667 0
1000423 -414 -678 0
1000423 -415 -689 0
1000423 -416 -700 0
1000423 -417 -711 0
1000423 -418 -722 0
1000423 -419 -733 0
1000423 -420 -744 0
1000423 -421 -755 0
1000423 -422 -766 0
1000423 -423 -777 0
1000423 -424 -788 0
1000423 -425 -799 0
1000423 -426 -810 0
1000423 -427 -821 0
1000423 -428 -832 0
1000423 -429 -843 0
1000423 -430 -854 0
1000423 -431 -865 0
1000423 -432 -876 0
1000423 -433 -887 0
1000423 -434 -898 0
1000423 -435 -909 0
1000423 -436 -920 0
1000423 -437 -931 0
1000423 -438 -942 0
1000423 -439 -953 0
1000423 -440 -964 0
1000423 -397 -492 0
1000423 -398 -503 0
1000423 -399 -514 0
1000423 -400 -525 0
1000423 -401 -536 0
1000423 -402 -547 0
1000423 -403 -558 0
1000423 -404 -569 0
1000423 -405 -580 0
1000423 -406 -591 0
1000423 -407 -602 0
1000423 -408 -613 0
1000423 -409 -624 0
1000423 -410 -635 0
1000423 -411 -646 0
1000423 -412 -657 0
1000423 -413 -668 0
1000423 -414 -679 0
1000423 -415 -690 0
1000423 -416 -701 0
1000423 -417 -712 0
1000423 -418 -723 0
1000423 -419 -734 0
1000423 -420 -745 0
1000423 -421 -756 0
1000423 -422 -767 0
1000423 -423 -778 0
1000423 -424 -789 0
1000423 -425 -800 0
1000423 -426 -811 0
1000423 -427 -822 0
1000423 -428 -833 0
1000423 -429 -844 0
1000423 -430 -855 0
1000423 -431 -866 0
1000423 -432 -877 0
1000423 -433 -888 0
1000423 -434 -899 0
1000423 -435 -910 0
1000423 -436 -921 0
1000423 -437 -932 0
1000423 -438 -943 0
1000423 -439 -954 0
1000423 -440 -965 0
1000423 -397 -493 0
1000423 -398 -504 0
1000423 -399 -515 0
1000423 -400 -526 0
1000423 -401 -537 0
1000423 -402 -548 0
1000423 -403 -559 0
1000423 -404 -570 0
1000423 -405 -581 0
1000423 -406 -592 0
1000423 -407 -603 0
1000423 -408 -614 0
1000423 -409 -625 0
1000423 -410 -636 0
1000423 -411 -647 0
1000423 -412 -658 0
1000423 -413 -669 0
1000423 -414 -680 0
1000423 -415 -691 0
1000423 -416 -702 0
1000423 -417 -713 0
1000423 -418 -724 0
1000423 -419 -735 0
1000423 -420 -746 0
1000423 -421 -757 0
1000423 -422 -768 0
1000423 -423 -779 0
1000423 -424 -790 0
1000423 -425 -801 0
1000423 -426 -812 0
1000423 -427 -823 0
1000423 -428 -834 0
1000423 -429 -845 0
1000423 -430 -856 0
1000423 -431 -867 0
1000423 -432 -878 0
1000423 -433 -889 0
1000423 -434 -900 0
1000423 -435 -911 0
1000423 -436 -922 0
1000423 -437 -933 0
1000423 -438 -944 0
1000423 -439 -955 0
1000423 -440 -966 0
1000423 2465 2466 2467 2468 2469 2470 2471 2472 2473 2474 2475 2476 2477 2478 2479 2480 2481 2482 2483 2484 2485 2486 2487 2488 2489 2490 2491 2492 2493 2494 2495 2496 2497 2498 2499 2500 2501 2502 2503 2504 2505 2506 2507 2508 0
1000423 -2465 397 0
1000423 -2465 494 0
1000423 2465 -397 -494 0
1000423 -2466 398 0
1000423 -2466 505 0
1000423 2466 -398 -505 0
1000423 -2467 399 0
1000423 -2467 516 0
1000423 2467 -399 -516 0
1000423 -2468 400 0
1000423 -2468 527 0
1000423 2468 -400 -527 0
1000423 -2469 401 0
1000423 -2469 538 0
1000423 2469 -401 -538 0
1000423 -2470 402 0
1000423 -2470 549 0
1000423 2470 -402 -549 0
1000423 -2471 403 0
1000423 -2471 560 0
1000423 2471 -403 -560 0
1000423 -2472 404 0
1000423 -2472 571 0
1000423 2472 -404 -571 0
1000423 -2473 405 0
1000423 -2473 582 0
1000423 2473 -405 -582 0
1000423 -2474 406 0
1000423 -2474 593 0
1000423 2474 -406 -593 0
1000423 -2475 407 0
1000423 -2475 604 0
1000423 2475 -407 -604 0
1000423 -2476 408 0
1000423 -2476 615 0
1000423 2476 -408 -615 0
1000423 -2477 409 0
1000423 -2477 626 0
1000423 2477 -409 -626 0
1000423 -2478 410 0
1000423 -2478 637 0
1000423 2478 -410 -637 0
1000423 -2479 411 0
1000423 -2479 648 0
1000423 2479 -411 -648 0
1000423 -2480 412 0
1000423 -2480 659 0
1000423 2480 -412 -659 0
1000423 -2481 413 0
1000423 -2481 670 0
1000423 2481 -413 -670 0
1000423 -2482 414 0
1000423 -2482 681 0
1000423 2482 -414 -681 0
1000423 -2483 415 0
1000423 -2483 692 0
1000423 2483 -415 -692 0
1000423 -2484 416 0
1000423 -2484 703 0
1000423 2484 -416 -703 0
1000423 -2485 417 0
1000423 -2485 714 0
1000423 2485 -417 -714 0
1000423 -2486 418 0
1000423 -2486 725 0
1000423 2486 -418 -725 0
1000423 -2487 419 0
1000423 -2487 736 0
1000423 2487 -419 -736 0
1000423 -2488 420 0
1000423 -2488 747 0
1000423 2488 -420 -747 0
1000423 -2489 421 0
1000423 -2489 758 0
1000423 2489 -421 -758 0
1000423 -2490 422 0
1000423 -2490 769 0
1000423 2490 -422 -769 0
1000423 -2491 423 0
1000423 -2491 780 0
1000423 2491 -423 -780 0
1000423 -2492 424 0
1000423 -2492 791 0
1000423 2492 -424 -791 0
1000423 -2493 425 0
1000423 -2493 802 0
1000423 2493 -425 -802 0
1000423 -2494 426 0
1000423 -2494 813 0
1000423 2494 -426 -813 0
1000423 -2495 427 0
1000423 -2495 824 0
1000423 2495 -427 -824 0
1000423 -2496 428 0
1000423 -2496 835 0
1000423 2496 -428 -835 0
1000423 -2497 429 0
1000423 -2497 846 0
1000423 2497 -429 -846 0
1000423 -2498 430 0
1000423 -2498 857 0
1000423 2498 -430 -857 0
1000423 -2499 431 0
1000423 -2499 868 0
1000423 2499 -431 -868 0
1000423 -2500 432 0
1000423 -2500 879 0
1000423 2500 -432 -879 0
1000423 -2501 433 0
1000423 -2501 890 0
1000423 2501 -433 -890 0
1000423 -2502 434 0
1000423 -2502 901 0
1000423 2502 -434 -901 0
1000423 -2503 435 0
1000423 -2503 912 0
1000423 2503 -435 -912 0
1000423 -2504 436 0
1000423 -2504 923 0
1000423 2504 -436 -923 0
1000423 -2505 437 0
1000423 -2505 934 0
1000423 2505 -437 -934 0
1000423 -2506 438 0
1000423 -2506 945 0
1000423 2506 -438 -945 0
1000423 -2507 439 0
1000423 -2507 956 0
1000423 2507 -439 -956 0
1000423 -2508 440 0
1000423 -2508 967 0
1000423 2508 -440 -967 0
1000423 -397 -495 0
1000423 -398 -506 0
1000423 -399 -517 0
1000423 -400 -528 0
1000423 -401 -539 0
1000423 -402 -550 0
1000423 -403 -561 0
1000423 -404 -572 0
1000423 -405 -583 0
1000423 -406 -594 0
1000423 -407 -605 0
1000423 -408 -616 0
1000423 -409 -627 0
1000423 -410 -638 0
1000423 -411 -649 0
1000423 -412 -660 0
1000423 -413 -671 0
1000423 -414 -682 0
1000423 -415 -693 0
1000423 -416 -704 0
1000423 -417 -715 0
1000423 -418 -726 0
1000423 -419 -737 0
1000423 -420 -748 0
1000423 -421 -759 0
1000423 -422 -770 0
1000423 -423 -781 0
1000423 -424 -792 0
1000423 -425 -803 0
1000423 -426 -814 0
1000423 -427 -825 0
1000423 -428 -836 0
1000423 -429 -847 0
1000423 -430 -858 0
1000423 -431 -869 0
1000423 -432 -880 0
1000423 -433 -891 0
1000423 -434 -902 0
1000423 -435 -913 0
1000423 -436 -924 0
1000423 -437 -935 0
1000423 -438 -946 0
1000423 -439 -957 0
1000423 -440 -968 0
1000423 2509 2510 2511 2512 2513 2514 2515 2516 2517 2518 2519 2520 2521 2522 2523 2524 2525 2526 2527 2528 2529 2530 2531 2532 2533 2534 2535 2536 2537 2538 2539 2540 2541 2542 2543 2544 2545 2546 2547 2548 2549 2550 2551 2552 0
1000423 -2509 441 0
1000423 -2509 485 0
1000423 2509 -441 -485 0
1000423 -2510 442 0
1000423 -2510 496 0
1000423 2510 -442 -496 0
1000423 -2511 443 0
1000423 -2511 507 0
1000423 2511 -443 -507 0
1000423 -2512 444 0
1000423 -2512 518 0
1000423 2512 -444 -518 0
1000423 -2513 445 0
1000423 -2513 529 0
1000423 2513 -445 -529 0
1000423 -2514 446 0
1000423 -2514 540 0
1000423 2514 -446 -540 0
1000423 -2515 447 0
1000423 -2515 551 0
1000423 2515 -447 -551 0
1000423 -2516 448 0
1000423 -2516 562 0
1000423 2516 -448 -562 0
1000423 -2517 449 0
1000423 -2517 573 0
1000423 2517 -449 -573 0
1000423 -2518 450 0
1000423 -2518 584 0
1000423 2518 -450 -584 0
1000423 -2519 451 0
1000423 -2519 595 0
1000423 2519 -451 -595 0
1000423 -2520 452 0
1000423 -2520 606 0
1000423 2520 -452 -606 0
1000423 -2521 453 0
1000423 -2521 617 0
1000423 2521 -453 -617 0
1000423 -2522 454 0
1000423 -2522 628 0
1000423 2522 -454 -628 0
1000423 -2523 455 0
1000423 -2523 639 0
1000423 2523 -455 -639 0
1000423 -2524 456 0
1000423 -2524 650 0
1000423 2524 -456 -650 0
1000423 -2525 457 0
1000423 -2525 661 0
1000423 2525 -457 -661 0
1000423 -2526 458 0
1000423 -2526 672 0
1000423 2526 -458 -672 0
1000423 -2527 459 0
1000423 -2527 683 0
1000423 2527 -459 -683 0
1000423 -2528 460 0
1000423 -2528 694 0
1000423 2528 -460 -694 0
1000423 -2529 461 0
1000423 -2529 705 0
1000423 2529 -461 -705 0
1000423 -2530 462 0
1000423 -2530 716 0
1000423 2530 -462 -716 0
1000423 -2531 463 0
1000423 -2531 727 0
1000423 2531 -463 -727 0
1000423 -2532 464 0
1000423 -2532 738 0
1000423 2532 -464 -738 0
1000423 -2533 465 0
1000423 -2533 749 0
1000423 2533 -465 -749 0
1000423 -2534 466 0
1000423 -2534 760 0
1000423 2534 -466 -760 0
1000423 -2535 467 0
1000423 -2535 771 0
1000423 2535 -467 -771 0
1000423 -2536 468 0
1000423 -2536 782 0
1000423 2536 -468 -782 0
1000423 -2537 469 0
1000423 -2537 793 0
1000423 2537 -469 -793 0
1000423 -2538 470 0
1000423 -2538 804 0
1000423 2538 -470 -804 0
1000423 -2539 471 0
1000423 -2539 815 0
1000423 2539 -471 -815 0
1000423 -2540 472 0
1000423 -2540 826 0
1000423 2540 -472 -826 0
1000423 -2541 473 0
1000423 -2541 837 0
1000423 2541 -473 -837 0
1000423 -2542 474 0
1000423 -2542 848 0
1000423 2542 -474 -848 0
1000423 -2543 475 0
1000423 -2543 859 0
1000423 2543 -475 -859 0
1000423 -2544 476 0
1000423 -2544 870 0
1000423 2544 -476 -870 0
1000423 -2545 477 0
1000423 -2545 881 0
1000423 2545 -477 -881 0
1000423 -2546 478 0
1000423 -2546 892 0
1000423 2546 -478 -892 0
1000423 -2547 479 0
1000423 -2547 903 0
1000423 2547 -479 -903 0
1000423 -2548 480 0
1000423 -2548 914 0
1000423 2548 -480 -914 0
1000423 -2549 481 0
1000423 -2549 925 0
1000423 2549 -481 -925 0
1000423 -2550 482 0
1000423 -2550 936 0
1000423 2550 -482 -936 0
1000423 -2551 483 0
1000423 -2551 947 0
1000423 2551 -483 -947 0
1000423 -2552 484 0
1000423 -2552 958 0
1000423 2552 -484 -958 0
1000423 2553 2554 2555 2556 2557 2558 2559 2560 2561 2562 2563 2564 2565 2566 2567 2568 2569 2570 2571 2572 2573 2574 2575 2576 2577 2578 2579 2580 2581 2582 2583 2584 2585 2586 2587 2588 2589 2590 2591 2592 2593 2594 2595 2596 0
1000423 -2553 441 0
1000423 -2553 486 0
1000423 2553 -441 -486 0
1000423 -2554 442 0
1000423 -2554 497 0
1000423 2554 -442 -497 0
1000423 -2555 443 0
1000423 -2555 508 0
1000423 2555 -443 -508 0
1000423 -2556 444 0
1000423 -2556 519 0
1000423 2556 -444 -519 0
1000423 -2557 445 0
1000423 -2557 530 0
1000423 2557 -445 -530 0
1000423 -2558 446 0
1000423 -2558 541 0
1000423 2558 -446 -541 0
1000423 -2559 447 0
1000423 -2559 552 0
1000423 2559 -447 -552 0
1000423 -2560 448 0
1000423 -2560 563 0
1000423 2560 -448 -563 0
1000423 -2561 449 0
1000423 -2561 574 0
1000423 2561 -449 -574 0
1000423 -2562 450 0
1000423 -2562 585 0
1000423 2562 -450 -585 0
1000423 -2563 451 0
1000423 -2563 596 0
1000423 2563 -451 -596 0
1000423 -2564 452 0
1000423 -2564 607 0
1000423 2564 -452 -607 0
1000423 -2565 453 0
1000423 -2565 618 0
1000423 2565 -453 -618 0
1000423 -2566 454 0
1000423 -2566 629 0
1000423 2566 -454 -629 0
1000423 -2567 455 0
1000423 -2567 640 0
1000423 2567 -455 -640 0
1000423 -2568 456 0
1000423 -2568 651 0
1000423 2568 -456 -651 0
1000423 -2569 457 0
1000423 -2569 662 0
1000423 2569 -457 -662 0
1000423 -2570 458 0
1000423 -2570 673 0
1000423 2570 -458 -673 0
1000423 -2571 459 0
1000423 -2571 684 0
1000423 2571 -459 -684 0
1000423 -2572 460 0
1000423 -2572 695 0
1000423 2572 -460 -695 0
1000423 -2573 461 0
1000423 -2573 706 0
1000423 2573 -461 -706 0
1000423 -2574 462 0
1000423 -2574 717 0
1000423 2574 -462 -717 0
1000423 -2575 463 0
1000423 -2575 728 0
1000423 2575 -463 -728 0
1000423 -2576 464 0
1000423 -2576 739 0
1000423 2576 -464 -739 0
1000423 -2577 465 0
1000423 -2577 750 0
1000423 2577 -465 -750 0
1000423 -2578 466 0
1000423 -2578 761 0
1000423 2578 -466 -761 0
1000423 -2579 467 0
1000423 -2579 772 0
1000423 2579 -467 -772 0
1000423 -2580 468 0
1000423 -2580 783 0
1000423 2580 -468 -783 0
1000423 -2581 469 0
1000423 -2581 794 0
1000423 2581 -469 -794 0
1000423 -2582 470 0
1000423 -2582 805 0
1000423 2582 -470 -805 0
1000423 -2583 471 0
1000423 -2583 816 0
1000423 2583 -471 -816 0
1000423 -2584 472 0
1000423 -2584 827 0
1000423 2584 -472 -827 0
1000423 -2585 473 0
1000423 -2585 838 0
1000423 2585 -473 -838 0
1000423 -2586 474 0
1000423 -2586 849 0
1000423 2586 -474 -849 0
1000423 -2587 475 0
1000423 -2587 860 0
1000423 2587 -475 -860 0
1000423 -2588 476 0
1000423 -2588 871 0
1000423 2588 -476 -871 0
1000423 -2589 477 0
1000423 -2589 882 0
1000423 2589 -477 -882 0
1000423 -2590 478 0
1000423 -2590 893 0
1000423 2590 -478 -893 0
1000423 -2591 479 0
1000423 -2591 904 0
1000423 2591 -479 -904 0
1000423 -2592 480 0
1000423 -2592 915 0
1000423 2592 -480 -915 0
1000423 -2593 481 0
1000423 -2593 926 0
1000423 2593 -481 -926 0
1000423 -2594 482 0
1000423 -2594 937 0
1000423 2594 -482 -937 0
1000423 -2595 483 0
1000423 -2595 948 0
1000423 2595 -483 -948 0
1000423 -2596 484 0
1000423 -2596 959 0
1000423 2596 -484 -959 0
1000423 -441 -487 0
1000423 -442 -498 0
1000423 -443 -509 0
1000423 -444 -520 0
1000423 -445 -531 0
1000423 -446 -542 0
1000423 -447 -553 0
1000423 -448 -564 0
1000423 -449 -575 0
1000423 -450 -586 0
1000423 -451 -597 0
1000423 -452 -608 0
1000423 -453 -619 0
1000423 -454 -630 0
1000423 -455 -641 0
1000423 -456 -652 0
1000423 -457 -663 0
1000423 -458 -674 0
1000423 -459 -685 0
1000423 -460 -696 0
1000423 -461 -707 0
1000423 -462 -718 0
1000423 -463 -729 0
1000423 -464 -740 0
1000423 -465 -751 0
1000423 -466 -762 0
1000423 -467 -773 0
1000423 -468 -784 0
1000423 -469 -795 0
1000423 -470 -806 0
1000423 -471 -817 0
1000423 -472 -828 0
1000423 -473 -839 0
1000423 -474 -850 0
1000423 -475 -861 0
1000423 -476 -872 0
1000423 -477 -883 0
1000423 -478 -894 0
1000423 -479 -905 0
1000423 -480 -916 0
1000423 -481 -927 0
1000423 -482 -938 0
1000423 -483 -949 0
1000423 -484 -960 0
1000423 -441 -488 0
1000423 -442 -499 0
1000423 -443 -510 0
1000423 -444 -521 0
1000423 -445 -532 0
1000423 -446 -543 0
1000423 -447 -554 0
1000423 -448 -565 0
1000423 -449 -576 0
1000423 -450 -587 0
1000423 -451 -598 0
1000423 -452 -609 0
1000423 -453 -620 0
1000423 -454 -631 0
1000423 -455 -642 0
1000423 -456 -653 0
1000423 -457 -664 0
1000423 -458 -675 0
1000423 -459 -686 0
1000423 -460 -697 0
1000423 -461 -708 0
1000423 -462 -719 0
1000423 -463 -730 0
1000423 -464 -741 0
1000423 -465 -752 0
1000423 -466 -763 0
1000423 -467 -774 0
1000423 -468 -785 0
1000423 -469 -796 0
1000423 -470 -807 0
1000423 -471 -818 0
1000423 -472 -829 0
1000423 -473 -840 0
1000423 -474 -851 0
1000423 -475 -862 0
1000423 -476 -873 0
1000423 -477 -884 0
1000423 -478 -895 0
1000423 -479 -906 0
1000423 -480 -917 0
1000423 -481 -928 0
1000423 -482 -939 0
1000423 -483 -950 0
1000423 -484 -961 0
1000423 -441 -489 0
1000423 -442 -500 0
1000423 -443 -511 0
1000423 -444 -522 0
1000423 -445 -533 0
1000423 -446 -544 0
1000423 -447 -555 0
1000423 -448 -566 0
1000423 -449 -577 0
1000423 -450 -588 0
1000423 -451 -599 0
1000423 -452 -610 0
1000423 -453 -621 0
1000423 -454 -632 0
1000423 -455 -643 0
1000423 -456 -654 0
1000423 -457 -665 0
1000423 -458 -676 0
1000423 -459 -687 0
1000423 -460 -698 0
1000423 -461 -709 0
1000423 -462 -720 0
1000423 -463 -731 0
1000423 -464 -742 0
1000423 -465 -753 0
1000423 -466 -764 0
1000423 -467 -775 0
1000423 -468 -786 0
1000423 -469 -797 0
1000423 -470 -808 0
1000423 -471 -819 0
1000423 -472 -830 0
1000423 -473 -841 0
1000423 -474 -852 0
1000423 -475 -863 0
1000423 -476 -874 0
1000423 -477 -885 0
1000423 -478 -896 0
1000423 -479 -907 0
1000423 -480 -918 0
1000423 -481 -929 0
1000423 -482 -940 0
1000423 -483 -951 0
1000423 -484 -962 0
1000423 -441 -490 0
1000423 -442 -501 0
1000423 -443 -512 0
1000423 -444 -523 0
1000423 -445 -534 0
1000423 -446 -545 0
1000423 -447 -556 0
1000423 -448 -567 0
1000423 -449 -578 0
1000423 -450 -589 0
1000423 -451 -600 0
1000423 -452 -611 0
1000423 -453 -622 0
1000423 -454 -633 0
1000423 -455 -644 0
1000423 -456 -655 0
1000423 -457 -666 0
1000423 -458 -677 0
1000423 -459 -688 0
1000423 -460 -699 0
1000423 -461 -710 0
1000423 -462 -721 0
1000423 -463 -732 0
1000423 -464 -743 0
1000423 -465 -754 0
1000423 -466 -765 0
1000423 -467 -776 0
1000423 -468 -787 0
1000423 -469 -798 0
1000423 -470 -809 0
1000423 -471 -820 0
1000423 -472 -831 0
1000423 -473 -842 0
1000423 -474 -853 0
1000423 -475 -864 0
1000423 -476 -875 0
1000423 -477 -886 0
1000423 -478 -897 0
1000423 -479 -908 0
1000423 -480 -919 0
1000423 -481 -930 0
1000423 -482 -941 0
1000423 -483 -952 0
1000423 -484 -963 0
1000423 -441 -491 0
1000423 -442 -502 0
1000423 -443 -513 0
1000423 -444 -524 0
1000423 -445 -535 0
1000423 -446 -546 0
1000423 -447 -557 0
1000423 -448 -568 0
1000423 -449 -579 0
1000423 -450 -590 0
1000423 -451 -601 0
1000423 -452 -612 0
1000423 -453 -623 0
1000423 -454 -634 0
1000423 -455 -645 0
1000423 -456 -656 0
1000423 -457 -667 0
1000423 -458 -678 0
1000423 -459 -689 0
1000423 -460 -700 0
1000423 -461 -711 0
1000423 -462 -722 0
1000423 -463 -733 0
1000423 -464 -744 0
1000423 -465 -755 0
1000423 -466 -766 0
1000423 -467 -777 0
1000423 -468 -788 0
1000423 -469 -799 0
1000423 -470 -810 0
1000423 -471 -821 0
1000423 -472 -832 0
1000423 -473 -843 0
1000423 -474 -854 0
1000423 -475 -865 0
1000423 -476 -876 0
1000423 -477 -887 0
1000423 -478 -898 0
1000423 -479 -909 0
1000423 -480 -920 0
1000423 -481 -931 0
1000423 -482 -942 0
1000423 -483 -953 0
1000423 -484 -964 0
1000423 -441 -492 0
1000423 -442 -503 0
1000423 -443 -514 0
1000423 -444 -525 0
1000423 -445 -536 0
1000423 -446 -547 0
1000423 -447 -558 0
1000423 -448 -569 0
1000423 -449 -580 0
1000423 -450 -591 0
1000423 -451 -602 0
1000423 -452 -613 0
1000423 -453 -624 0
1000423 -454 -635 0
1000423 -455 -646 0
1000423 -456 -657 0
1000423 -457 -668 0
1000423 -458 -679 0
1000423 -459 -690 0
1000423 -460 -701 0
1000423 -461 -712 0
1000423 -462 -723 0
1000423 -463 -734 0
1000423 -464 -745 0
1000423 -465 -756 0
1000423 -466 -767 0
1000423 -467 -778 0
1000423 -468 -789 0
1000423 -469 -800 0
1000423 -470 -811 0
1000423 -471 -822 0
1000423 -472 -833 0
1000423 -473 -844 0
1000423 -474 -855 0
1000423 -475 -866 0
1000423 -476 -877 0
1000423 -477 -888 0
1000423 -478 -899 0
1000423 -479 -910 0
1000423 -480 -921 0
1000423 -481 -932 0
1000423 -482 -943 0
1000423 -483 -954 0
1000423 -484 -965 0
1000423 -441 -493 0
1000423 -442 -504 0
1000423 -443 -515 0
1000423 -444 -526 0
1000423 -445 -537 0
1000423 -446 -548 0
1000423 -447 -559 0
1000423 -448 -570 0
1000423 -449 -581 0
1000423 -450 -592 0
1000423 -451 -603 0
1000423 -452 -614 0
1000423 -453 -625 0
1000423 -454 -636 0
1000423 -455 -647 0
1000423 -456 -658 0
1000423 -457 -669 0
1000423 -458 -680 0
1000423 -459 -691 0
1000423 -460 -702 0
1000423 -461 -713 0
1000423 -462 -724 0
1000423 -463 -735 0
1000423 -464 -746 0
1000423 -465 -757 0
1000423 -466 -768 0
1000423 -467 -779 0
1000423 -468 -790 0
1000423 -469 -801 0
1000423 -470 -812 0
1000423 -471 -823 0
1000423 -472 -834 0
1000423 -473 -845 0
1000423 -474 -856 0
1000423 -475 -867 0
1000423 -476 -878 0
1000423 -477 -889 0
1000423 -478 -900 0
1000423 -479 -911 0
1000423 -480 -922 0
1000423 -481 -933 0
1000423 -482 -944 0
1000423 -483 -955 0
1000423 -484 -966 0
1000423 -441 -494 0
1000423 -442 -505 0
1000423 -443 -516 0
1000423 -444 -527 0
1000423 -445 -538 0
1000423 -446 -549 0
1000423 -447 -560 0
1000423 -448 -571 0
1000423 -449 -582 0
1000423 -450 -593 0
1000423 -451 -604 0
1000423 -452 -615 0
1000423 -453 -626 0
1000423 -454 -637 0
1000423 -455 -648 0
1000423 -456 -659 0
1000423 -457 -670 0
1000423 -458 -681 0
1000423 -459 -692 0
1000423 -460 -703 0
1000423 -461 -714 0
1000423 -462 -725 0
1000423 -463 -736 0
1000423 -464 -747 0
1000423 -465 -758 0
1000423 -466 -769 0
1000423 -467 -780 0
1000423 -468 -791 0
1000423 -469 -802 0
1000423 -470 -813 0
1000423 -471 -824 0
1000423 -472 -835 0
1000423 -473 -846 0
1000423 -474 -857 0
1000423 -475 -868 0
1000423 -476 -879 0
1000423 -477 -890 0
1000423 -478 -901 0
1000423 -479 -912 0
1000423 -480 -923 0
1000423 -481 -934 0
1000423 -482 -945 0
1000423 -483 -956 0
1000423 -484 -967 0
1000423 2597 2598 2599 2600 2601 2602 2603 2604 2605 2606 2607 2608 2609 2610 2611 2612 2613 2614 2615 2616 2617 2618 2619 2620 2621 2622 2623 2624 2625 2626 2627 2628 2629 2630 2631 2632 2633 2634 2635 2636 2637 2638 2639 2640 0
1000423 -2597 441 0
1000423 -2597 495 0
1000423 2597 -441 -495 0
1000423 -2598 442 0
1000423 -2598 506 0
1000423 2598 -442 -506 0
1000423 -2599 443 0
1000423 -2599 517 0
1000423 2599 -443 -517 0
1000423 -2600 444 0
1000423 -2600 528 0
1000423 2600 -444 -528 0
1000423 -2601 445 0
1000423 -2601 539 0
1000423 2601 -445 -539 0
1000423 -2602 446 0
1000423 -2602 550 0
1000423 2602 -446 -550 0
1000423 -2603 447 0
1000423 -2603 561 0
1000423 2603 -447 -561 0
1000423 -2604 448 0
1000423 -2604 572 0
1000423 2604 -448 -572 0
1000423 -2605 449 0
1000423 -2605 583 0
1000423 2605 -449 -583 0
1000423 -2606 450 0
1000423 -2606 594 0
1000423 2606 -450 -594 0
1000423 -2607 451 0
1000423 -2607 605 0
1000423 2607 -451 -605 0
1000423 -2608 452 0
1000423 -2608 616 0
1000423 2608 -452 -616 0
1000423 -2609 453 0
1000423 -2609 627 0
1000423 2609 -453 -627 0
1000423 -2610 454 0
1000423 -2610 638 0
1000423 2610 -454 -638 0
1000423 -2611 455 0
1000423 -2611 649 0
1000423 2611 -455 -649 0
1000423 -2612 456 0
1000423 -2612 660 0
1000423 2612 -456 -660 0
1000423 -2613 457 0
1000423 -2613 671 0
1000423 2613 -457 -671 0
1000423 -2614 458 0
1000423 -2614 682 0
1000423 2614 -458 -682 0
1000423 -2615 459 0
1000423 -2615 693 0
1000423 2615 -459 -693 0
1000423 -2616 460 0
1000423 -2616 704 0
1000423 2616 -460 -704 0
1000423 -2617 461 0
1000423 -2617 715 0
1000423 2617 -461 -715 0
1000423 -2618 462 0
1000423 -2618 726 0
1000423 2618 -462 -726 0
1000423 -2619 463 0
1000423 -2619 737 0
1000423 2619 -463 -737 0
1000423 -2620 464 0
1000423 -2620 748 0
1000423 2620 -464 -748 0
1000423 -2621 465 0
1000423 -2621 759 0
1000423 2621 -465 -759 0
1000423 -2622 466 0
1000423 -2622 770 0
1000423 2622 -466 -770 0
1000423 -2623 467 0
1000423 -2623 781 0
1000423 2623 -467 -781 0
1000423 -2624 468 0
1000423 -2624 792 0
1000423 2624 -468 -792 0
1000423 -2625 469 0
1000423 -2625 803 0
1000423 2625 -469 -803 0
1000423 -2626 470 0
1000423 -2626 814 0
1000423 2626 -470 -814 0
1000423 -2627 471 0
1000423 -2627 825 0
1000423 2627 -471 -825 0
1000423 -2628 472 0
1000423 -2628 836 0
1000423 2628 -472 -836 0
1000423 -2629 473 0
1000423 -2629 847 0
1000423 2629 -473 -847 0
1000423 -2630 474 0
1000423 -2630 858 0
1000423 2630 -474 -858 0
1000423 -2631 475 0
1000423 -2631 869 0
1000423 2631 -475 -869 0
1000423 -2632 476 0
1000423 -2632 880 0
1000423 2632 -476 -880 0
1000423 -2633 477 0
1000423 -2633 891 0
1000423 2633 -477 -891 0
1000423 -2634 478 0
1000423 -2634 902 0
1000423 2634 -478 -902 0
1000423 -2635 479 0
1000423 -2635 913 0
1000423 2635 -479 -913 0
1000423 -2636 480 0
1000423 -2636 924 0
1000423 2636 -480 -924 0
1000423 -2637 481 0
1000423 -2637 935 0
1000423 2637 -481 -935 0
1000423 -2638 482 0
1000423 -2638 946 0
1000423 2638 -482 -946 0
1000423 -2639 483 0
1000423 -2639 957 0
1000423 2639 -483 -957 0
1000423 -2640 484 0
1000423 -2640 968 0
1000423 2640 -484 -968 0
